! Created with skrf 2.0.1 (http://scikit-rf.org).
# GHz S DB R 50.0 
!freq dBS11 angS11 dBS21 angS21 dBS12 angS12 dBS22 angS22
80.0 -0.20548030031556463 -122.81193723143784 -56.03098142517094 -32.965592528595856 -56.03098142512094 -32.965592528035856 -0.21004769768619116 -125.2981369537953
81.6 -0.21232241517900222 -124.4734798963394 -56.02053262694356 -34.691826351472116 -56.02053262691357 -34.69182635216212 -0.21704128134320447 -127.04950729500388
83.2 -0.21931322221366342 -126.11824734864271 -56.00487741343983 -36.41285308137497 -56.004877413289826 -36.41285308046498 -0.22417922527997086 -128.78444092503793
84.8 -0.22646569175007297 -127.74748563814559 -55.982817785207466 -38.1317231739722 -55.98281778514747 -38.13172317491219 -0.23147401388120248 -130.50413310362381
86.4 -0.23379414361354764 -129.36246265772027 -55.95304207477359 -39.85174763085827 -55.95304207501358 -39.85174763057827 -0.23893946376227587 -132.2098027682553
88.0 -0.24131439038407035 -130.96447151070308 -55.91410992441449 -41.57652382091223 -55.9141099241745 -41.57652381841224 -0.24659086147245737 -133.90269569462706
89.6 -0.2490439056270362 -132.55483447431703 -55.86443622960101 -43.30996106014789 -55.86443622959101 -43.30996106227789 -0.2544451255158001 -135.58408823907635
91.2 -0.2570020216759084 -134.13490762475752 -55.80227416328313 -45.05630473389122 -55.802274163463125 -45.05630473334123 -0.2625209970503701 -137.25529172703733
92.8 -0.26521016260133345 -135.70608620279756 -55.725697432028014 -46.82015737120898 -55.72569743186801 -46.82015737026897 -0.27083926476617104 -138.91765756891016
94.4 -0.2736921193518742 -137.26981082075616 -55.63258206481048 -48.60649482314669 -55.632582064960474 -48.60649482415669 -0.27942303085510534 -140.57258319345138
96.0 -0.282474375765089 -138.827574632599 -55.52058810959821 -50.42067504892835 -55.52058810939822 -50.42067505224834 -0.2882980262476443 -142.22151892859128
97.6 -0.29158649637740586 -140.38093162197725 -55.387141792084016 -52.268436946324876 -55.38714179165402 -52.268436946934855 -0.29749298580317474 -143.86597596888816
99.2 -0.30106158983801695 -141.93150619621062 -55.22941883550348 -54.155886224906205 -55.229418835763475 -54.155886221256196 -0.30704009713378816 -145.50753562043187
100.8 -0.3109368655213219 -143.48100432080352 -55.044329824295886 -56.08946554881294 -55.04432982455589 -56.08946554790296 -0.3169755395703707 -147.14786004701517
102.4 -0.3212543059343473 -145.03122648822526 -54.828508636029554 -58.075906602546844 -54.82850863613955 -58.07590659976686 -0.3273401357708349 -148.7887048051971
104.0 -0.3320614841945579 -146.58408288717104 -54.57830514040858 -60.12216276447512 -54.57830514041858 -60.122162767355114 -0.33818014400776775 -150.43193352219424
105.6 -0.3434125648745942 -148.14161123264097 -54.28978336175427 -62.23532313542885 -54.289783362134266 -62.23532313740884 -0.3495482286403423 -152.07953516504972
107.2 -0.3553695387996613 -149.70599784487013 -53.958726276846924 -64.42251144945821 -53.958726276846924 -64.4225114500982 -0.3615046573999503 -153.73364447105166
108.8 -0.3680037593654458 -151.27960272092446 -53.58064810620324 -66.6907774911034 -53.580648106523235 -66.69077748944342 -0.3741187918374003 -155.39656626510472
110.4 -0.38139787164927297 -152.86498956451223 -53.150814442401 -69.0469935226164 -53.15081444206101 -69.0469935275064 -0.3874709589114995 -157.07080459740536
112.0 -0.3956482591936419 -154.46496202284126 -52.66426966464535 -71.49777421599372 -52.664269664695354 -71.4977742159237 -0.4016548257624791 -158.75909791984114
113.6 -0.41086818161924477 -156.08260777060673 -52.11586986339461 -74.0494441537466 -52.11586986354462 -74.04944414978661 -0.4167804453293947 -160.46446189093828
115.2 -0.4271918466857867 -157.72135261386023 -51.50031787468205 -76.70808277592015 -51.500317874702056 -76.70808277686017 -0.43297821025879263 -162.19024192693723
116.8 -0.4447797650461888 -159.38502752636467 -50.81219517661843 -79.4796803842001 -50.812195176378424 -79.47968038300009 -0.4504040533873048 -163.9401783230065
118.4 -0.46382589405856645 -161.07795256027538 -50.0459834390586 -82.37044109639184 -50.04598343855859 -82.37044109390185 -0.46924638758258785 -165.7184877845432
120.0 -0.48456732085630794 -162.80504304050834 -49.196066656760564 -85.38726947290259 -49.19606665663057 -85.38726947257257 -0.4897355141959322 -167.52996662479617
121.6 -0.5072976189524173 -164.57194554591723 -48.25670335633755 -88.5384780090446 -48.25670335610755 -88.5384780092946 -0.5121566041469191 -169.38012292810075
123.2 -0.5323856320247898 -166.3852142162145 -47.22195739266339 -91.83475693298729 -47.22195739270339 -91.83475693340729 -0.5368679572194991 -171.2753479317903
124.8 -0.5603024630592202 -168.25254234862425 -46.08557542317457 -95.29046085354871 -46.08557542351457 -95.29046085475872 -0.564327243464651 -173.2231411946039
126.4 -0.591661189677732 -170.18307072702902 -44.840799010596974 -98.92529785120517 -44.84079901082697 -98.92529785020517 -0.5951301277578327 -175.23241042802545
128.0 -0.6272768820234151 -172.18780354576953 -43.48009917714832 -102.76656817301304 -43.48009917732832 -102.76656817041304 -0.6300686583392069 -177.3138760538008
129.6 -0.6682600370826035 -174.2801761231439 -41.99482095837857 -106.85221287231306 -41.99482095838856 -106.85221287101305 -0.6702222045832615 -179.4806235036955
131.2 -0.7161669437793754 -176.47683603351777 -40.37472588155934 -111.23513113263891 -40.37472588157934 -111.23513113243892 -0.7171038796149636 178.25113691803443
132.8 -0.7732507868981138 -178.79871688131402 -38.60742418708099 -115.98957290396562 -38.60742418704099 -115.98957290386562 -0.7729051507233038 175.86102618573753
134.4 -0.8428985027118154 178.7275185750846 -36.677705050670056 -121.22104336835169 -36.677705050510056 -121.22104336675169 -0.8409213857584203 173.32309565800801
136.0 -0.930425365368247 176.06769214640377 -34.56683276703713 -127.08235109725192 -34.56683276700713 -127.08235109635191 -0.9263255650778814 170.6040972716499
137.6 -1.0445884475811669 173.17851050100998 -32.252079424143425 -133.8007188266757 -32.25207942412342 -133.80071882567572 -1.037641255858038 167.6619455853893
139.2 -1.2005919738770499 170.00870985061783 -29.707405207241713 -141.72503693418327 -29.707405207151712 -141.72503693488324 -1.189665616708767 164.44687598270173
140.8 -1.4261672858383843 166.51333446620467 -26.908161976206543 -151.40866706845554 -26.90816197621654 -151.4086670680555 -1.4093745090755605 160.91544562429644
142.4 -1.773027716952969 162.72112239295043 -23.8485742578942 -163.74453690755803 -23.8485742578542 -163.74453690715802 -1.747010113701721 157.09628969980741
144.0 -2.328843860192005 158.9927095597954 -20.595842798966054 179.889911745633 -20.595842798996053 179.889911745633 -2.2874942428617713 153.34094798299324
145.6 -3.1595459937261934 156.71630805934083 -17.418264744974504 157.88502696232268 -17.4182647450045 157.88502696242267 -3.0939735314597003 150.99424553630263
147.2 -3.959821825520373 158.1074663706481 -14.884610617154523 130.26131416659234 -14.88461061717452 130.26131416679235 -3.871461228989903 152.18774868392094
148.8 -4.090824024710732 160.71945330875113 -13.421745574018257 101.07810837166055 -13.421745573958253 101.07810837212054 -4.0057490592563205 154.57560357296504
150.4 -3.908167459297541 159.6533616295724 -12.69042071981607 74.78023367019374 -12.690420719776066 74.78023366997373 -3.8346144086288354 153.44264833420036
152.0 -4.02493909813762 155.85023224778715 -12.103662370263994 51.59169949927076 -12.103662370253993 51.59169949951077 -3.949534943353062 149.66680718190403
153.6 -4.611053958414396 151.74497232596778 -11.403337258215833 29.46593446319951 -11.403337258215831 29.465934463119503 -4.516312784531969 145.60502078558025
155.2 -5.6560825914707085 149.88111544026222 -10.640348702935416 6.498762833149923 -10.640348702895416 6.498762833366923 -5.521117507331061 143.71755967392284
156.8 -6.769494312375281 153.3670225556766 -10.039521784043215 -18.066934259240355 -10.03952178405321 -18.066934258980357 -6.584420511599376 146.93769012521724
158.4 -6.987387424090138 160.91653961434758 -9.81689774196225 -43.36883554207142 -9.816897741954254 -43.36883554200143 -6.79733764678904 153.99958830061036
160.0 -6.2449582093620295 164.66361544097214 -9.969770918268283 -67.68803158070722 -9.969770918268285 -67.68803158049724 -6.095588886632797 157.50714016126528
161.6 -5.4921214585444735 162.61165983283445 -10.288545818107018 -90.11207696154528 -10.288545818087014 -90.11207696159529 -5.372013112165482 155.49194137430527
163.2 -5.165403918998237 157.56759184989173 -10.557394290992814 -111.05661739078197 -10.557394291042812 -111.05661739118197 -5.051192277001517 150.58143486486287
164.8 -5.30867971686814 151.74487956064237 -10.67389390080698 -131.66270798168497 -10.67389390076698 -131.66270798188492 -5.180081375120404 144.91637014060154
166.4 -5.896230015805121 146.83918989074115 -10.666956308347189 -153.20912707218255 -10.666956308337191 -153.20912707228254 -5.7318826179717615 140.1483535481742
168.0 -6.774331961423759 145.06859130686698 -10.696880085301235 -176.6507258817212 -10.69688008525124 -176.65072588192123 -6.5526766829053615 138.38578759378484
169.6 -7.339331313677681 147.84027626048766 -11.019745466288137 158.04418083878323 -11.019745466278138 158.04418083878323 -7.069193773672574 140.89170103409344
171.2 -6.94238867293321 150.67266854248834 -11.83089759259527 132.33445888290296 -11.830897592575269 132.33445888300295 -6.680087876020152 143.4521132152929
172.8 -6.073086537441172 147.96135349752893 -13.088314064091367 108.18721939312975 -13.088314064041368 108.18721939292975 -5.83797956089665 140.82991668969822
174.4 -5.420725459130535 140.46234495531345 -14.575413786946072 86.57787984435801 -14.575413786936071 86.57787984416801 -5.191852441531991 133.67959966875767
176.0 -5.129819446919419 130.42320553839448 -16.094563210998256 67.317527965995 -16.09456321101826 67.31752796559498 -4.885414706794905 124.13099794903722
177.6 -5.127828009378278 118.88020557224321 -17.5449515612285 49.750578879570355 -17.5449515612685 49.750578879760354 -4.853249086888222 113.20276832201755
179.2 -5.325537770429212 106.03567414957504 -18.90201406621915 33.239761763854354 -18.902014066219145 33.239761764374364 -5.013356432824891 101.11898174849787
180.8 -5.645681992826528 91.76557590191469 -20.18284395892975 17.317033461535672 -20.182843958809755 17.31703346180567 -5.298044565791876 87.78067222844807
182.4 -6.008919584635083 75.89860794698184 -21.42362217435034 1.6933611604790049 -21.42362217435034 1.693361160570705 -5.642667840020984 73.01427846196377
184.0 -6.3209503302268555 58.422984366254745 -22.66687434502556 -13.764874762706356 -22.666874345005557 -13.764874763886363 -5.972180064937436 56.7348110797538
185.6 -6.479304125767813 39.68296546666394 -23.95355554697687 -29.06329003624136 -23.953555547026873 -29.063290037051367 -6.1993960710758 39.10487809860958
187.2 -6.4081671763711965 20.458494081444186 -25.317442581509965 -44.10917781414313 -25.31744258138996 -44.10917781232314 -6.244421090097163 20.652181519731933
188.8 -6.09894175037622 1.7628914512442804 -26.781362923040476 -58.74615406609092 -26.78136292290047 -58.74615406595092 -6.069605528631877 2.213073687061836
190.4 -5.61244645342261 -15.55252658164919 -28.355658346637348 -72.79242477899837 -28.35565834630735 -72.79242477934837 -5.699719016628622 -15.343426509556139
192.0 -5.038258205833918 -31.047151566196355 -30.039116469997754 -86.07665610122436 -30.039116469387753 -86.07665609707436 -5.204152955343019 -31.41260648522151
193.6 -4.4531215244374085 -44.65517723005825 -31.82189889256438 -98.46435081791876 -31.82189889317438 -98.46435081673872 -4.659328103937165 -45.74877901630625
195.2 -3.9049734798623104 -56.522133625280965 -33.689410459742845 -109.87078973702678 -33.68941045956284 -109.87078973292678 -4.122986547654882 -58.374383899674584
196.8 -3.416261741122108 -66.86948546118253 -35.62599820997991 -120.26139611456841 -35.62599820999991 -120.26139611536841 -3.62854533663679 -69.44706303422515
198.4 -2.992936210976444 -75.92328158069986 -37.61777186438049 -129.64372891543627 -37.61777186435049 -129.64372891693625 -3.1903494159781216 -79.16698664851906
200.0 -2.632157349108564 -83.88645812112904 -39.65436156402297 -138.05601708816957 -39.65436156406297 -138.05601708926957 -2.8109532185126582 -87.73071215191115
201.6 -2.327251725033639 -90.93204398877049 -41.72980255998998 -145.55598530280324 -41.72980255989998 -145.55598528990325 -2.486779132987781 -95.31362244768104
203.2 -2.0704520873560956 -97.20446325517632 -43.842894184827244 -152.21204657437718 -43.84289418546725 -152.21204657327718 -2.2116612712157218 -102.06587281151391
204.8 -1.8542407137405315 -102.82330380361317 -45.99739238620792 -158.0976533922717 -45.99739238686793 -158.0976533852717 -1.978796231198932 -108.11370084790006
206.4 -1.6719115771949922 -107.88740490598123 -48.202362703839114 -163.28899927921344 -48.20236270386911 -163.28899929331345 -1.7817003551245423 -113.56244826013315
208.0 -1.517731011055917 -112.478551427432 -50.473025712603075 -167.86634424775414 -50.47302571154307 -167.86634424255416 -1.6146080664027926 -118.49983170427868
209.6 -1.3869096547203892 -116.66460174764612 -52.83254056210389 -171.9200594065163 -52.832540557283885 -171.92005938581633 -1.472579579258678 -122.9989392194209
211.2 -1.2754975785532894 -120.50206380460237 -55.31550491383173 -175.56460991260934 -55.31550491036174 -175.56460991540933 -1.351470182643577 -127.12080516194523
212.8 -1.1802580539584566 -124.03819000927027 -57.974761889052154 -178.9691774932241 -57.97476189480216 -178.96917749862413 -1.2478424775138899 -130.91655927184758
214.4 -1.0985453985305575 -127.31267122678452 -60.89509315991184 177.57016009390836 -60.89509315868183 177.57016008470833 -1.158862673365269 -134.4291946144873
216.0 -1.0281970056703884 -130.35900368850275 -64.22241159975732 173.43463306812959 -64.22241159468733 173.43463312462958 -1.082200197101588 -137.69501151473665
217.6 -0.9674422297508436 -133.20559196270682 -68.22823209142932 167.03015873489315 -68.22823210080932 167.03015876859317 -1.0159384854254745 -140.74479297698565
219.2 -0.9148274480359064 -135.87664012047964 -73.39737739438229 152.91342214417375 -73.39737741111229 152.9134221867738 -0.9584991728854966 -143.6047606119891
220.8 -0.8691553211384437 -138.39287337111142 -78.8599823036226 109.89747475324587 -78.8599822876726 109.8974747479459 -0.9085792665382041 -146.29735251850815
222.4 -0.8294359560016309 -140.77212410073315 -76.63933482474832 54.780277598209885 -76.63933481776832 54.7802772178899 -0.8650998350277488 -148.84185731480488
224.0 -0.7948477929202655 -143.0298093866887 -72.64510993551363 36.5538078608838 -72.64510992932364 36.55380783535381 -0.8271644451390687 -151.25493215088753
225.6 -0.7647063200730996 -145.17932152429893 -69.91413787564363 30.97702825216067 -69.91413786427364 30.977028097020668 -0.7940256360073012 -153.55102717215718
227.2 -0.7384390367074545 -147.23234867188614 -67.94200037599555 29.51768823191927 -67.94200037844556 29.517688201699265 -0.7650579201478525 -155.74273447788303
228.8 -0.7155653839381942 -149.19913920423716 -66.38827806908213 29.836195231026586 -66.38827807211214 29.836195171686583 -0.7397360379384905 -157.84107603598858
230.4 -0.6956806188736286 -151.08872058650903 -65.07406668395527 31.029869164589385 -65.07406668295526 31.02986917397938 -0.7176174209293119 -159.85574213410783
232.0 -0.6784428204075701 -152.90908137839727 -63.901429970246674 32.64812783976134 -63.90142996021667 32.64812786664133 -0.6983280208362207 -161.79528963650347
233.6 -0.6635623864885289 -154.66732325331162 -62.815135901141616 34.42713088421559 -62.81513588958162 34.4271308108356 -0.6815508295431307 -163.66730749217697
235.2 -0.6507935191152012 -156.36978854105618 -61.78396466066143 36.20071183406178 -61.783964669201424 36.20071186934178 -0.6670165540705133 -165.47855545884997
236.8 -0.6399273007973056 -158.02216772764473 -60.79059490537145 37.86368265429385 -60.79059490089145 37.86368265257385 -0.6544960210520916 -167.23508086421361
238.4 -0.6307860508379215 -159.62959048582928 -59.82569347613624 39.35265953436691 -59.825693474326236 39.35265951781691 -0.6437939742520513 -168.9423172902942
240.0 -0.6232187160978422 -161.1967031308284 -58.88434893369008 40.63358112380225 -58.88434892943007 40.633581106032246 -0.634743997840572 -170.60516832365414
