#  GHZ S DB R 50.0
 8.00000000e+01 -2.103152796380e-01 -1.253215339204e+02 -5.593237328773e+01 -3.420960758998e+01 -5.593237328768e+01 -3.420960758942e+01 -2.100479652457e-01 -1.252981358562e+02
 8.16000000e+01 -2.173133965159e-01 -1.270733587491e+02 -5.592210100557e+01 -3.597990511556e+01 -5.592210100554e+01 -3.597990511625e+01 -2.170415498139e-01 -1.270495061174e+02
 8.32000000e+01 -2.244555180698e-01 -1.288087300138e+02 -5.590677195919e+01 -3.774509742598e+01 -5.590677195904e+01 -3.774509742507e+01 -2.241794945032e-01 -1.287844396642e+02
 8.48000000e+01 -2.317540838024e-01 -1.305288408871e+02 -5.588518895853e+01 -3.950820658330e+01 -5.588518895847e+01 -3.950820658424e+01 -2.314742837388e-01 -1.305041317556e+02
 8.64000000e+01 -2.392228616550e-01 -1.322349082119e+02 -5.585604126794e+01 -4.127251589837e+01 -5.585604126818e+01 -4.127251589809e+01 -2.389397341754e-01 -1.322098013282e+02
 8.80000000e+01 -2.468770856912e-01 -1.339281756389e+02 -5.581788960989e+01 -4.304159560744e+01 -5.581788960965e+01 -4.304159560494e+01 -2.465911323994e-01 -1.339026941566e+02
 8.96000000e+01 -2.547336179066e-01 -1.356099173462e+02 -5.576915013466e+01 -4.481932829682e+01 -5.576915013465e+01 -4.481932829895e+01 -2.544453969484e-01 -1.355840865958e+02
 9.12000000e+01 -2.628111386013e-01 -1.372814424052e+02 -5.570807747152e+01 -4.660993285798e+01 -5.570807747170e+01 -4.660993285743e+01 -2.625212690085e-01 -1.372552899696e+02
 9.28000000e+01 -2.711303707694e-01 -1.389440998695e+02 -5.563274701279e+01 -4.841798538105e+01 -5.563274701263e+01 -4.841798538011e+01 -2.708395372895e-01 -1.389176556864e+02
 9.44000000e+01 -2.797143452636e-01 -1.405992846848e+02 -5.554103673200e+01 -5.024843513577e+01 -5.554103673215e+01 -5.024843513678e+01 -2.794233039910e-01 -1.405725811725e+02
 9.60000000e+01 -2.885887151496e-01 -1.422484445378e+02 -5.543060891176e+01 -5.210661314082e+01 -5.543060891156e+01 -5.210661314414e+01 -2.882983000335e-01 -1.422215167528e+02
 9.76000000e+01 -2.977821298203e-01 -1.438930877942e+02 -5.529889233623e+01 -5.399823075372e+01 -5.529889233580e+01 -5.399823075433e+01 -2.974932602407e-01 -1.438659736181e+02
 9.92000000e+01 -3.073266822223e-01 -1.455347927078e+02 -5.514306564774e+01 -5.592936527493e+01 -5.514306564800e+01 -5.592936527128e+01 -3.070403721516e-01 -1.455075330698e+02
 1.00800000e+02 -3.172584462139e-01 -1.471752181278e+02 -5.496004275103e+01 -5.790642978641e+01 -5.496004275129e+01 -5.790642978550e+01 -3.169758149694e-01 -1.471478572658e+02
 1.02400000e+02 -3.276181259141e-01 -1.488161159887e+02 -5.474646129037e+01 -5.993612487012e+01 -5.474646129048e+01 -5.993612486734e+01 -3.273404111445e-01 -1.487887017552e+02
 1.04000000e+02 -3.384518453679e-01 -1.504593459373e+02 -5.449867539937e+01 -6.202537088098e+01 -5.449867539938e+01 -6.202537088386e+01 -3.381804186246e-01 -1.504319301557e+02
 1.05600000e+02 -3.498121155892e-01 -1.521068925424e+02 -5.421275392106e+01 -6.418122150869e+01 -5.421275392144e+01 -6.418122151067e+01 -3.495485012705e-01 -1.520795314221e+02
 1.07200000e+02 -3.617590279431e-01 -1.537608856567e+02 -5.388448527157e+01 -6.641076213883e+01 -5.388448527157e+01 -6.641076213947e+01 -3.615049260571e-01 -1.537336402758e+02
 1.08800000e+02 -3.743617392825e-01 -1.554236246510e+02 -5.350938980723e+01 -6.872100061594e+01 -5.350938980755e+01 -6.872100061428e+01 -3.741190533918e-01 -1.553965615209e+02
 1.10400000e+02 -3.877003372189e-01 -1.570976074560e+02 -5.308274004086e+01 -7.111876288370e+01 -5.308274004052e+01 -7.111876288859e+01 -3.874712085051e-01 -1.570707991801e+02
 1.12000000e+02 -4.018682064754e-01 -1.587855656213e+02 -5.259958815910e+01 -7.361061195948e+01 -5.259958815915e+01 -7.361061195941e+01 -4.016550559164e-01 -1.587590916686e+02
 1.13600000e+02 -4.169750640598e-01 -1.604905069805e+02 -5.205479906790e+01 -7.620281425675e+01 -5.205479906805e+01 -7.620281425279e+01 -4.167806445678e-01 -1.604644545955e+02
 1.15200000e+02 -4.331508992941e-01 -1.622157680276e+02 -5.144308556992e+01 -7.890138306424e+01 -5.144308556994e+01 -7.890138306518e+01 -4.329783609627e-01 -1.621902333098e+02
 1.16800000e+02 -4.505511561627e-01 -1.639650788272e+02 -5.075904043146e+01 -8.171223269796e+01 -5.075904043122e+01 -8.171223269676e+01 -4.504041284051e-01 -1.639401680143e+02
 1.18400000e+02 -4.693636487317e-01 -1.657426442786e+02 -4.999715813627e+01 -8.464147908645e+01 -4.999715813577e+01 -8.464147908396e+01 -4.692463448029e-01 -1.657184752863e+02
 1.20000000e+02 -4.898179367878e-01 -1.675532469768e+02 -4.915183726440e+01 -8.769592332123e+01 -4.915183726427e+01 -8.769592332090e+01 -4.897352877261e-01 -1.675299512598e+02
 1.21600000e+02 -5.121982611989e-01 -1.694023789431e+02 -4.821735299576e+01 -9.088375509045e+01 -4.821735299553e+01 -9.088375509070e+01 -5.121560897363e-01 -1.693801037663e+02
 1.23200000e+02 -5.368617389319e-01 -1.712964124411e+02 -4.718778826468e+01 -9.421551702629e+01 -4.718778826472e+01 -9.421551702671e+01 -5.368669877364e-01 -1.712753236843e+02
 1.24800000e+02 -5.642645107628e-01 -1.732428243834e+02 -4.605691166450e+01 -9.770538388953e+01 -4.605691166484e+01 -9.770538389074e+01 -5.643255468237e-01 -1.732231100618e+02
 1.26400000e+02 -5.950002236269e-01 -1.752504951142e+02 -4.481799005949e+01 -1.013728412207e+02 -4.481799005972e+01 -1.013728412197e+02 -5.951272531815e-01 -1.752323698856e+02
 1.28000000e+02 -6.298581901975e-01 -1.773301114823e+02 -4.346352372032e+01 -1.052449090835e+02 -4.346352372050e+01 -1.052449090809e+02 -6.300638440909e-01 -1.773138225642e+02
 1.29600000e+02 -6.699139321565e-01 -1.794947170406e+02 -4.198489148647e+01 -1.093591687317e+02 -4.198489148648e+01 -1.093591687304e+02 -6.702141347140e-01 -1.794805521672e+02
 1.31200000e+02 -7.166748840071e-01 +1.782395308931e+02 -4.037189373760e+01 -1.137680467239e+02 -4.037189373762e+01 -1.137680467237e+02 -7.170902245489e-01 +1.782512326555e+02
 1.32800000e+02 -7.723236744058e-01 +1.758523205005e+02 -3.861218460075e+01 -1.185451558505e+02 -3.861218460071e+01 -1.185451558504e+02 -7.728816754547e-01 +1.758611543101e+02
 1.34400000e+02 -8.401412567705e-01 +1.733177865215e+02 -3.669060062451e+01 -1.237951166076e+02 -3.669060062435e+01 -1.237951166060e+02 -8.408801721562e-01 +1.733232633058e+02
 1.36000000e+02 -9.252762233182e-01 +1.706027775697e+02 -3.458845119420e+01 -1.296694684228e+02 -3.458845119417e+01 -1.296694684219e+02 -9.262513921892e-01 +1.706043013782e+02
 1.37600000e+02 -1.036209364379e+00 +1.676652988765e+02 -3.228303405549e+01 -1.363935506340e+02 -3.228303405547e+01 -1.363935506330e+02 -1.037504196960e+00 +1.676621401284e+02
 1.39200000e+02 -1.187660219415e+00 +1.644555907749e+02 -2.974826752098e+01 -1.443133764659e+02 -2.974826752089e+01 -1.443133764666e+02 -1.189406609887e+00 +1.644468615116e+02
 1.40800000e+02 -1.406464865739e+00 +1.609298300940e+02 -2.695926108790e+01 -1.539778857512e+02 -2.695926108791e+01 -1.539778857508e+02 -1.408883757058e+00 +1.609144989053e+02
 1.42400000e+02 -1.742660458606e+00 +1.571148510631e+02 -2.390943960383e+01 -1.662737149729e+02 -2.390943960379e+01 -1.662737149725e+02 -1.746143874305e+00 +1.570919662345e+02
 1.44000000e+02 -2.281238846729e+00 +1.533562544219e+02 -2.066383215580e+01 +1.774272421114e+02 -2.066383215583e+01 +1.774272421114e+02 -2.286490187716e+00 +1.533260606680e+02
 1.45600000e+02 -3.087692090089e+00 +1.509904444152e+02 -1.748651475701e+01 +1.555048415314e+02 -1.748651475704e+01 +1.555048415315e+02 -3.095694898558e+00 +1.509584211194e+02
 1.47200000e+02 -3.871897044303e+00 +1.521860494252e+02 -1.494468536162e+01 +1.279266522680e+02 -1.494468536164e+01 +1.279266522682e+02 -3.882328009610e+00 +1.521671800261e+02
 1.48800000e+02 -4.007608064357e+00 +1.546549711097e+02 -1.347576701224e+01 +9.871461830142e+01 -1.347576701218e+01 +9.871461830188e+01 -4.017287244724e+00 +1.546512393855e+02
 1.50400000e+02 -3.824471774115e+00 +1.535756784936e+02 -1.274871860504e+01 +7.237970912365e+01 -1.274871860500e+01 +7.237970912343e+01 -3.832508713249e+00 +1.535675600369e+02
 1.52000000e+02 -3.924674278989e+00 +1.497872491984e+02 -1.217062935223e+01 +4.920415353678e+01 -1.217062935222e+01 +4.920415353702e+01 -3.932730378267e+00 +1.497634420868e+02
 1.53600000e+02 -4.477903561612e+00 +1.456499565935e+02 -1.147542095652e+01 +2.714059022385e+01 -1.147542095652e+01 +2.714059022377e+01 -4.488097034363e+00 +1.456082691800e+02
 1.55200000e+02 -5.478173144134e+00 +1.435984337644e+02 -1.070869767755e+01 +4.251962213994e+00 -1.070869767751e+01 +4.251962214211e+00 -5.493143392135e+00 +1.435461980740e+02
 1.56800000e+02 -6.567474093992e+00 +1.466407720836e+02 -1.009497791609e+01 -2.027601194082e+01 -1.009497791610e+01 -2.027601194056e+01 -6.588899188943e+00 +1.466076824765e+02
 1.58400000e+02 -6.823573605712e+00 +1.538149342253e+02 -9.858863267080e+00 -4.562411297047e+01 -9.858863267072e+00 -4.562411297040e+01 -6.846268648428e+00 +1.538344903686e+02
 1.60000000e+02 -6.122922112981e+00 +1.575995487445e+02 -1.000847464927e+01 -7.004252383487e+01 -1.000847464927e+01 -7.004252383466e+01 -6.140286089915e+00 +1.576465573617e+02
 1.61600000e+02 -5.375210601496e+00 +1.557137916472e+02 -1.033541962995e+01 -9.254802764869e+01 -1.033541962993e+01 -9.254802764874e+01 -5.387769991622e+00 +1.557528963037e+02
 1.63200000e+02 -5.030847209068e+00 +1.508105364137e+02 -1.061761763051e+01 -1.135176521194e+02 -1.061761763056e+01 -1.135176521198e+02 -5.040957248238e+00 +1.508285772813e+02
 1.64800000e+02 -5.140704780685e+00 +1.450844672681e+02 -1.074599215441e+01 -1.340919582885e+02 -1.074599215437e+01 -1.340919582887e+02 -5.150145984773e+00 +1.450776969373e+02
 1.66400000e+02 -5.680045264268e+00 +1.401860780189e+02 -1.074441823552e+01 -1.555717842681e+02 -1.074441823551e+01 -1.555717842682e+02 -5.690286069570e+00 +1.401534696094e+02
 1.68000000e+02 -6.507058730882e+00 +1.382313942248e+02 -1.077085995047e+01 -1.789553513649e+02 -1.077085995042e+01 -1.789553513651e+02 -6.519602878484e+00 +1.381759354037e+02
 1.69600000e+02 -7.059311093478e+00 +1.406589387689e+02 -1.108569592710e+01 +1.557360816598e+02 -1.108569592709e+01 +1.557360816598e+02 -7.074743369544e+00 +1.405918940187e+02
 1.71200000e+02 -6.695873938480e+00 +1.434079684018e+02 -1.189566000902e+01 +1.299557540571e+02 -1.189566000900e+01 +1.299557540572e+02 -6.712241587322e+00 +1.433350444888e+02
 1.72800000e+02 -5.846183171126e+00 +1.409700395303e+02 -1.316540062297e+01 +1.057392415053e+02 -1.316540062292e+01 +1.057392415051e+02 -5.862029624616e+00 +1.408781999684e+02
 1.74400000e+02 -5.186167425893e+00 +1.338918452476e+02 -1.467353983863e+01 +8.412728601284e+01 -1.467353983862e+01 +8.412728601265e+01 -5.201880455742e+00 +1.337674408591e+02
 1.76000000e+02 -4.870765430469e+00 +1.243716157248e+02 -1.621440750981e+01 +6.494484445972e+01 -1.621440750983e+01 +6.494484445932e+01 -4.887021538762e+00 +1.242055277039e+02
 1.77600000e+02 -4.833836018672e+00 +1.134702152259e+02 -1.768187093024e+01 +4.752213188917e+01 -1.768187093028e+01 +4.752213188936e+01 -4.850995485548e+00 +1.132547616574e+02
 1.79200000e+02 -4.991723195727e+00 +1.014240104103e+02 -1.904852660146e+01 +3.120289500080e+01 -1.904852660146e+01 +3.120289500132e+01 -5.009677389536e+00 +1.011515492265e+02
 1.80800000e+02 -5.276138546149e+00 +8.813535305867e+01 -2.032981259393e+01 +1.550086844775e+01 -2.032981259381e+01 +1.550086844802e+01 -5.294130940611e+00 +8.779876765791e+01
 1.82400000e+02 -5.622694309496e+00 +7.342728000429e+01 -2.156089271082e+01 +1.083868816435e-01 -2.156089271082e+01 +1.083868817352e-01 -5.639094541667e+00 +7.302229508567e+01
 1.84000000e+02 -5.956968008044e+00 +5.720667900334e+01 -2.278396559571e+01 -1.512842822921e+01 -2.278396559569e+01 -1.512842823039e+01 -5.969211545445e+00 +5.673630787978e+01
 1.85600000e+02 -6.192017512849e+00 +3.962271719833e+01 -2.404061981344e+01 -3.023637897289e+01 -2.404061981349e+01 -3.023637897370e+01 -6.197120509944e+00 +3.910266061184e+01
 1.87200000e+02 -6.246945299824e+00 +2.118805216964e+01 -2.536640821331e+01 -4.514219525168e+01 -2.536640821319e+01 -4.514219524986e+01 -6.242812131084e+00 +2.064833919120e+01
 1.88800000e+02 -6.081785920077e+00 +2.731408521848e+00 -2.678696067864e+01 -5.970356623925e+01 -2.678696067850e+01 -5.970356623911e+01 -6.068561686778e+00 +2.208991682080e+00
 1.90400000e+02 -5.718997964336e+00 -1.487253390523e+01 -2.831598886702e+01 -7.374455066185e+01 -2.831598886669e+01 -7.374455066220e+01 -5.699101623925e+00 -1.534699075184e+01
 1.92000000e+02 -5.227060126451e+00 -3.100510597852e+01 -2.995557131664e+01 -8.709077102732e+01 -2.995557131603e+01 -8.709077102317e+01 -5.203822978019e+00 -3.141536791786e+01
 1.93600000e+02 -4.682897058990e+00 -4.540771174240e+01 -3.169850781353e+01 -9.959754652985e+01 -3.169850781414e+01 -9.959754652867e+01 -4.659171799237e+00 -4.575074389114e+01
 1.95200000e+02 -4.145316043444e+00 -5.809526588905e+01 -3.353188388251e+01 -1.111660446354e+02 -3.353188388233e+01 -1.111660446313e+02 -4.122924490738e+00 -5.837569510242e+01
 1.96800000e+02 -3.648695155951e+00 -6.922250453333e+01 -3.544076690999e+01 -1.217469008451e+02 -3.544076691001e+01 -1.217469008459e+02 -3.628528844013e+00 -6.944789622682e+01
 1.98400000e+02 -3.208022299784e+00 -7.898922988572e+01 -3.741122720998e+01 -1.313345329337e+02 -3.741122720995e+01 -1.313345329352e+02 -3.190351861277e+00 -7.916749679508e+01
 2.00000000e+02 -2.826209804999e+00 -8.759267707329e+01 -3.943236645820e+01 -1.399568038830e+02 -3.943236645824e+01 -1.399568038841e+02 -2.810961571763e+00 -8.773101589986e+01
 2.01600000e+02 -2.499847215060e+00 -9.520920410238e+01 -4.149744695642e+01 -1.476640292629e+02 -4.149744695633e+01 -1.476640292500e+02 -2.486787807640e+00 -9.531379954271e+01
 2.03200000e+02 -2.222825891164e+00 -1.019899325529e+02 -4.360442760742e+01 -1.545198069434e+02 -4.360442760806e+01 -1.545198069423e+02 -2.211668344343e+00 -1.020659744109e+02
 2.04800000e+02 -1.988343045503e+00 -1.080619551209e+02 -4.575626376672e+01 -1.605947984648e+02 -4.575626376738e+01 -1.605947984578e+02 -1.978801384218e+00 -1.081137583731e+02
 2.06400000e+02 -1.789889993485e+00 -1.135313367227e+02 -4.796131350457e+01 -1.659638597460e+02 -4.796131350460e+01 -1.659638597601e+02 -1.781703859217e+00 -1.135624804387e+02
 2.08000000e+02 -1.621667100785e+00 -1.184863938387e+02 -5.023420105248e+01 -1.707068878744e+02 -5.023420105142e+01 -1.707068878692e+02 -1.614610331863e+00 -1.184998494675e+02
 2.09600000e+02 -1.478699731683e+00 -1.230007078738e+02 -5.259759836442e+01 -1.749145028731e+02 -5.259759835960e+01 -1.749145028524e+02 -1.472580982024e+00 -1.229989488566e+02
 2.11200000e+02 -1.356811205434e+00 -1.271357178079e+02 -5.508571348847e+01 -1.787017735587e+02 -5.508571348500e+01 -1.787017735615e+02 -1.351471015087e+00 -1.271208102565e+02
 2.12800000e+02 -1.252536343824e+00 -1.309428852029e+02 -5.775108259130e+01 +1.777613329989e+02 -5.775108259705e+01 +1.777613329935e+02 -1.247842948668e+00 -1.309165618529e+02
 2.14400000e+02 -1.163017927783e+00 -1.344654756694e+02 -6.067824809910e+01 +1.741778833952e+02 -6.067824809787e+01 +1.741778833860e+02 -1.158862924828e+00 -1.344291958275e+02
 2.16000000e+02 -1.085905957911e+00 -1.377400139725e+02 -6.401293791295e+01 +1.699282503086e+02 -6.401293790788e+01 +1.699282503651e+02 -1.082200320865e+00 -1.376950120064e+02
 2.17600000e+02 -1.019267915266e+00 -1.407974685524e+02 -6.802652483305e+01 +1.634175312192e+02 -6.802652484243e+01 +1.634175312529e+02 -1.015938538919e+00 -1.407447931138e+02
 2.19200000e+02 -9.615123919842e-01 -1.436642148275e+02 -7.320372311348e+01 +1.492016499850e+02 -7.320372313021e+01 +1.492016500276e+02 -9.584991902832e-01 -1.436047606034e+02
 2.20800000e+02 -9.113257518933e-01 -1.463628190330e+02 -7.867458517058e+01 +1.060929646629e+02 -7.867458515463e+01 +1.060929646576e+02 -9.085792667363e-01 -1.462973524858e+02
 2.22400000e+02 -8.676203743486e-01 -1.489126770684e+02 -7.646233688138e+01 +5.088881269826e+01 -7.646233687440e+01 +5.088881231794e+01 -8.650998270435e-01 -1.488418573294e+02
 2.24000000e+02 -8.294927179035e-01 -1.513305364127e+02 -7.247660675222e+01 +3.258061537677e+01 -7.247660674603e+01 +3.258061535124e+01 -8.271644316471e-01 -1.512549322555e+02
 2.25600000e+02 -7.961894885234e-01 -1.536309237609e+02 -6.975419063947e+01 +2.692684287535e+01 -6.975419062810e+01 +2.692684272021e+01 -7.940256155831e-01 -1.535510273924e+02
 2.27200000e+02 -7.670803925487e-01 -1.558264965775e+02 -6.779064521472e+01 +2.539481012462e+01 -6.779064521717e+01 +2.539481009440e+01 -7.650578886353e-01 -1.557427348286e+02
 2.28800000e+02 -7.416361917245e-01 -1.579283331483e+02 -6.624553323880e+01 +2.564454236987e+01 -6.624553324183e+01 +2.564454231053e+01 -7.397359892318e-01 -1.578410765247e+02
 2.30400000e+02 -7.194110068581e-01 -1.599461728089e+02 -6.493993810649e+01 +2.677302413883e+01 -6.493993810549e+01 +2.677302414822e+01 -7.176173473650e-01 -1.598557427629e+02
 2.32000000e+02 -7.000280192957e-01 -1.618886156986e+02 -6.377591549611e+01 +2.832937944810e+01 -6.377591548608e+01 +2.832937947498e+01 -6.983279133233e-01 -1.617952904031e+02
 2.33600000e+02 -6.831678896826e-01 -1.637632895453e+02 -6.269822858790e+01 +3.004951098463e+01 -6.269822857634e+01 +3.004951091125e+01 -6.815506775129e-01 -1.636673083906e+02
 2.35200000e+02 -6.685593528317e-01 -1.655769895058e+02 -6.167565529020e+01 +3.176702794010e+01 -6.167565529874e+01 +3.176702797538e+01 -6.670163452954e-01 -1.654785564799e+02
 2.36800000e+02 -6.559715595272e-01 -1.673357959214e+02 -6.069087391246e+01 +3.337654676868e+01 -6.069087390798e+01 +3.337654676696e+01 -6.544957413611e-01 -1.672350819959e+02
 2.38400000e+02 -6.452078255644e-01 -1.690451739128e+02 -5.973455242139e+01 +3.481451368547e+01 -5.973455241958e+01 +3.481451366892e+01 -6.437936071551e-01 -1.689423185183e+02
 2.40000000e+02 -6.361005192016e-01 -1.707100579962e+02 -5.880178162378e+01 +3.604672003407e+01 -5.880178161952e+01 +3.604672001630e+01 -6.347435240630e-01 -1.706051696319e+02
