! Created with skrf 2.0.1 (http://scikit-rf.org).
# GHz S DB R 50.0 
!freq dBS11 angS11 dBS21 angS21 dBS12 angS12 dBS22 angS22
80.0 -0.205312735603769 -122.79819682605536 -56.0336938411486 -32.94895229565821 -56.0336938411486 -32.94895229563821 -0.21008386087408712 -125.2839337642249
81.6 -0.21215061648354272 -124.46052902420985 -56.02332470128104 -34.67542508743244 -56.02332470129103 -34.67542508742245 -0.21707979943469274 -127.03503773088404
83.2 -0.21913727263816046 -126.10611319401605 -56.007750975850776 -36.396633608774934 -56.007750975850776 -36.396633608774934 -0.22422011268290337 -128.76969970276028
84.8 -0.22628568261072457 -127.73619560902554 -55.98577356953312 -38.11564135979781 -55.98577356953312 -38.11564135977781 -0.23151728165999047 -130.4891145464801
86.4 -0.23361017676386153 -129.35204454822593 -55.95607976191416 -39.83577208369396 -55.95607976192415 -39.83577208375396 -0.23898511965090397 -132.19450075613753
88.0 -0.24112658084331895 -130.9549536707044 -55.9172281567363 -41.560635738946964 -55.917228156736286 -41.56063573887696 -0.2466389097310023 -133.8871036084272
89.6 -0.2488523845795765 -132.54624599039795 -55.86763260210121 -43.29415418613047 -55.867632602101224 -43.29415418613047 -0.2544955665928559 -135.56819890228635
91.2 -0.25680693992163134 -134.12727851266763 -55.80554517876921 -45.04058540338538 -55.80554517876921 -45.04058540333538 -0.26257382708805627 -137.23909734244876
92.8 -0.26501169456042917 -135.69944761509134 -55.72903843211364 -46.80454466545191 -55.729038432153644 -46.804544665511905 -0.2708944749533501 -138.90114964771425
94.4 -0.27349046774421826 -137.264195271779 -55.63598712247176 -48.59102073188716 -55.63598712249175 -48.591020732107154 -0.27948060650611467 -140.55575247983873
96.0 -0.282269777121572 -138.82301624506582 -55.524049890230074 -50.40538468237825 -55.524049890230074 -50.405384682438275 -0.288357945697316 -142.20435531385175
97.6 -0.29137922757381846 -140.3774663990367 -55.3906513786771 -52.25338869072656 -55.3906513786871 -52.253388690736564 -0.2975552191539679 -143.84846839701046
99.2 -0.30085197589626744 -141.92917232323109 -55.232965518270696 -54.14115183702592 -55.232965518260706 -54.14115183706592 -0.30710460457275224 -145.4896719815034
100.8 -0.3107252889870617 -143.47984250431125 -55.047900851661865 -56.07513010408747 -55.047900851661865 -56.075130104157466 -0.31704226955238823 -147.1296270581216
102.4 -0.3210412182273059 -145.0312803383308 -54.83208894324741 -58.062068205873565 -54.83208894327742 -58.06206820592357 -0.3274090227515363 -148.7700878743222
104.0 -0.33184741944384577 -146.5853993524642 -54.58187704706422 -60.10893199490348 -54.58187704706422 -60.10893199485347 -0.3382511058287723 -150.4129165933195
105.6 -0.34319815690534045 -148.1442410996045 -54.293326262251284 -62.22282212186636 -54.29332626228128 -62.22282212200637 -0.34962116329796744 -152.0601005414539
107.2 -0.3551555421511622 -149.70999631402543 -53.9622163291868 -64.41087254512202 -53.96221632919679 -64.41087254517201 -0.36157943942685017 -153.71377261141043
108.8 -0.3677910755028446 -151.2850300790988 -53.58405794418081 -66.68014149317455 -53.58405794421081 -66.68014149331455 -0.3741952678118784 -155.37623554699033
110.4 -0.3811875819390392 -152.87191197338515 -53.15411293089725 -69.03750752634798 -53.15411293093725 -69.03750752636796 -0.3875489422981168 -157.04999104248614
112.0 -0.3954416667693869 -154.47345245253643 -52.667421725825164 -71.48958910381018 -52.66742172584515 -71.48958910370018 -0.4017340905719232 -158.73777487168118
113.6 -0.4106668650617594 -156.09274711416066 -52.11883638939973 -74.04271203812357 -52.11883638939973 -74.04271203805355 -0.41686071877213676 -160.44259963579694
115.2 -0.4269977296047168 -157.7332310307442 -51.50305574952408 -76.702954616483 -51.50305574955408 -76.70295461645301 -0.4330591639622378 -162.16780724196838
116.8 -0.4445952073332044 -159.39874607502685 -50.81465741409225 -79.47630421275217 -50.81465741412225 -79.47630421274218 -0.45048529314430075 -163.9171339372566
118.4 -0.46365381311957765 -161.09362520449073 -50.048119420772295 -82.3689614519892 -50.0481194207923 -82.36896145181922 -0.46932744140638916 -165.6947917266474
120.0 -0.484411354966689 -162.82279913962657 -49.19782245769631 -85.38782862494097 -49.19782245771631 -85.38782862503096 -0.4898158191374473 -167.5055714268675
121.6 -0.5071623508441302 -164.5919329811479 -48.25802212364184 -88.5412197274962 -48.25802212365184 -88.54121972760618 -0.5122354922148132 -169.35497463810395
123.2 -0.5322769002389007 -166.40760336205702 -47.222779761226896 -91.839833543523 -47.22277976123689 -91.839833543553 -0.536944642153022 -171.24938486647812
124.8 -0.5602278038734588 -168.27753118316883 -46.0858399897773 -95.29804426263259 -46.08583998979731 -95.29804426273257 -0.5644008109101726 -173.19629231696277
126.4 -0.5916304777238858 -170.21089149188717 -44.84044297071404 -98.93559478187915 -44.84044297073404 -98.93559478187915 -0.5951995320335826 -175.20459316010482
128.0 -0.6273032807678351 -172.21873154590935 -43.47905929853654 -102.77983888590103 -43.47905929855655 -102.77983888580101 -0.6301327251593675 -177.2849931914192
129.6 -0.6683614460848846 -174.31454151136194 -41.993034986591134 -106.86879056009595 -41.993034986601145 -106.86879056019593 -0.6702796225279175 -179.45055868747932
131.2 -0.7163682689071121 -176.515039804588 -40.372133881420424 -111.25543773280695 -40.372133881430415 -111.25543773280695 -0.7171531220288306 178.28252595650454
132.8 -0.7735876296595321 -178.84125280887835 -38.60396817048303 -116.01413188834249 -38.603968170493026 -116.01413188844252 -0.77294421745487 175.8939175149507
134.4 -0.8434234125540118 178.68003385572055 -36.67332502276971 -121.25050806705137 -36.6733250227797 -121.25050806715134 -0.840947256669321 173.3577173386723
136.0 -0.9312189374778812 176.01447912283487 -34.56146080257849 -127.11758733881753 -34.56146080258849 -127.11758733881756 -0.9263333330621625 170.64074890152213
137.6 -1.045779964797493 173.11857951350134 -32.24563947234065 -133.842973946041 -32.24563947235065 -133.84297394614103 -1.0376227219846736 167.7010363978269
139.2 -1.2023994870420904 169.94082967570807 -29.69983040320585 -141.77620121434379 -29.699830403215852 -141.77620121434379 -1.189605811575671 164.48900234810543
140.8 -1.428977364479704 166.43612289391595 -26.899448782215487 -151.47162080509904 -26.899448782215487 -151.47162080519902 -1.4092393752833832 160.96156144617566
142.4 -1.7775459078042424 162.6336845906813 -23.83892089545105 -163.82347706629932 -23.838920895451054 -163.8234770663993 -1.7466953567848484 157.14808009373968
144.0 -2.336273869030498 158.89728590445134 -20.58596153451683 179.78994030217237 -20.585961534516827 179.78994030217237 -2.286603927922971 153.40135173439123
145.6 -3.17109105126265 156.62523851400584 -17.409768342534647 157.76230818540614 -17.409768342534647 157.76230818540614 -3.0911035442969097 151.065053201615
147.2 -3.973753286117473 158.04081348931905 -14.879160212004422 130.12665288530422 -14.879160212004422 130.1266528853042 -3.864582937615953 152.25267599234064
148.8 -4.1034677835804825 160.66801583431095 -13.418307692568662 100.94825805173951 -13.418307692568662 100.94825805169951 -3.9981721523568936 154.60914627890853
150.4 -3.9204232930558676 159.59759532326274 -12.686350527415932 74.65418901696432 -12.686350527425931 74.65418901693432 -3.830732570193538 153.46196981146966
152.0 -4.039270159446829 155.78885784802122 -12.097949082592068 51.45512366863377 -12.097949082592068 51.455123668613766 -3.9494414950520476 149.69592517736308
153.6 -4.629788453908073 151.6913858923333 -11.396907034361037 29.304386046593592 -11.39690703437104 29.304386046553585 -4.518887876723878 145.6630876458988
155.2 -5.679676420005371 149.87128968497245 -10.635650096926534 6.30451564684831 -10.635650096926536 6.304515646823311 -5.522915703030628 143.82907704219525
156.8 -6.789840663234443 153.4428881426942 -10.039667171378861 -18.28712181063183 -10.039667171388864 -18.28712181067183 -6.5756003466637045 147.10151517784777
158.4 -6.991594572734021 161.01950916841827 -9.823346154298786 -43.59251477011126 -9.823346154301783 -43.59251477014126 -6.772782563981479 154.11930366699636
160.0 -6.239386497020688 164.7002057045997 -9.980852002117434 -67.8939635691678 -9.980852002117434 -67.89396356919781 -6.069123681519133 157.52781619116288
161.6 -5.486631252198321 162.58835823932742 -10.301278235516211 -90.29517503270596 -10.301278235516211 -90.29517503273597 -5.352191732687554 155.46040633187795
163.2 -5.162583060595618 157.51189105283942 -10.569637075317182 -111.22440692302801 -10.56963707531718 -111.224406923028 -5.037819553343194 150.5376752281479
164.8 -5.308514930055111 151.67325786407946 -10.68484478055427 -131.82696220415065 -10.68484478055427 -131.82696220415065 -5.171357389395931 144.87852326783468
166.4 -5.898057730459348 146.76371580210292 -10.677006581173703 -153.38112078013125 -10.677006581173703 -153.38112078013125 -5.726147767737295 140.1273510259129
168.0 -6.77581445151948 145.00012926811723 -10.707481980094169 -176.83731772591202 -10.707481980084168 -176.83731772601197 -6.547239945916998 138.39068507527088
169.6 -7.335821841838617 147.76489498105275 -11.032808324593159 157.84578935218323 -11.032808324583158 157.84578935218323 -7.059756862252545 140.91008847065348
171.2 -6.934826717371122 150.5442528344514 -11.847289352306195 132.13664404638686 -11.847289352306195 132.13664404638686 -6.667428707539508 143.44593208775908
172.8 -6.067505637945372 147.7739306679359 -13.107141472821306 108.0012191693464 -13.107141472821306 108.0012191693464 -5.8271967163055844 140.7973100774865
174.4 -5.418972649534806 140.2347140288651 -14.595184045522362 86.40622853720924 -14.595184045522362 86.40622853718925 -5.184375275482239 133.64064975299198
176.0 -5.131103515600213 130.16447418806422 -16.11428528195262 67.15690654794003 -16.11428528195262 67.15690654790002 -4.880437921831652 124.09740399145373
177.6 -5.130974156063996 118.5905766616104 -17.564272626659264 49.59645487682572 -17.564272626649263 49.59645487680573 -4.849836887203071 113.17844380771609
179.2 -5.329350633215395 105.71209108730463 -18.920991414472294 33.08852017387069 -18.920991414462293 33.0885201738407 -5.010889772113235 101.10468804196181
180.8 -5.6487455308618255 91.40551114557891 -20.201741314046437 17.166481801349725 -20.201741314036433 17.166481801299735 -5.296184293045335 87.77615720313122
182.4 -6.009420289004951 75.50354766243633 -21.44278006939979 1.5426934675245756 -21.44278006937979 1.5426934675126363 -5.641276343557572 73.01888200767314
184.0 -6.316847713922375 58.002315773102715 -22.686623660377293 -13.915259561654969 -22.686623660367296 -13.915259561704973 -5.971260472306571 56.74740901175336
185.6 -6.4690933900353205 39.25610906898219 -23.97415309695788 -29.212052688896495 -23.97415309694788 -29.2120526890265 -6.199020589865491 39.12361857159771
187.2 -6.391913860710322 20.05096938283627 -25.33902593874599 -44.25439626273743 -25.339025938725996 -44.254396262787424 -6.244628805561128 20.674444943840243
188.8 -6.078518347396744 1.396472722763424 -26.803930707444493 -58.885748632124184 -26.80393070742449 -58.88574863215418 -6.0703145782510255 2.2359914759489214
190.4 -5.590522801236006 -15.867293344085688 -28.37908005205101 -72.92457233827677 -28.379080052041008 -72.92457233833676 -5.700730770529084 -15.322151039176033
192.0 -5.01707265889022 -31.310398960100226 -30.063166952482078 -86.20010035200657 -30.063166952472077 -86.20010035207657 -5.205239404380487 -31.394255492677473
193.6 -4.433978783789442 -44.87278371977955 -31.846304884479757 -98.57855461771902 -31.846304884449754 -98.578554618129 -4.660312540065749 -45.73376098908613
195.2 -3.8883714090427794 -56.7015447137739 -33.7138954197265 -109.97593675615816 -33.71389541971649 -109.97593675635815 -4.12376891700745 -58.36260648915858
196.8 -3.4022027429098904 -67.01766734583617 -35.65031681804796 -120.35829195277037 -35.65031681802796 -120.35829195297039 -3.6290888998609643 -69.43822959453264
198.4 -2.981183492696611 -76.04609394979691 -37.64173191745946 -129.73365996695853 -37.64173191741947 -129.73365996685854 -3.190657335598723 -79.1607535245702
200.0 -2.6223909668221084 -83.98863801100698 -39.677835426682265 -138.1406104325024 -39.677835426702266 -138.14061043260244 -2.8110492549802197 -87.72675294123239
201.6 -2.319148591392954 -91.01737444669061 -41.75273188591147 -145.63709246897423 -41.75273188579145 -145.63709246887424 -2.486695226261997 -95.31164765851578
203.2 -2.063720740881387 -97.27596304307752 -43.865291400441606 -152.2916595909084 -43.86529140045161 -152.29165959060842 -2.211430597135244 -102.06563197329916
204.8 -1.8486324093623776 -102.88339045905948 -46.01934166430836 -158.17785499788891 -46.01934166434836 -158.17785499798896 -1.9784497571906612 -108.11497893973736
206.4 -1.6672202219462826 -107.93802425195739 -48.224022588758906 -163.37195033420213 -48.2240225887989 -163.37195033440207 -1.7812654007890396 -113.56506096162728
208.0 -1.5137885483221365 -112.52127799827421 -50.49463545167729 -167.95431788947116 -50.49463545165729 -167.9543178893712 -1.6141079312820439 -118.50362094837784
209.6 -1.3835801317312217 -116.7007163384789 -52.85443288888697 -172.01554963539792 -52.85443288889698 -172.01554963519797 -1.472033697704359 -123.00376940975494
211.2 -1.2726713517557573 -120.53261352893799 -55.33812979791556 -175.67058210076374 -55.33812979783556 -175.67058210026374 -1.3508945114554871 -127.12656003725877
212.8 -1.177846695540396 -124.06403504295893 -57.998729395899844 -179.0896338414926 -57.99872939583984 -179.08963384249265 -1.2472499609344108 -130.92313930304834
214.4 -1.0964774460670652 -127.33452138634341 -60.9212492980123 177.42881919044845 -60.921249298192286 177.42881918964846 -1.1582637061177616 -134.4365148197193
216.0 -1.0264145138750305 -130.37744720092974 -64.25195228473834 173.25991100720597 -64.25195228470832 173.25991100710598 -1.081603048416425 -137.7029996013556
217.6 -0.9658980161895212 -133.22111820747182 -68.26262623866681 166.79146684969032 -68.26262623850683 166.79146684689033 -1.015349668347394 -140.75338774614696
219.2 -0.9134829112502001 -135.88965769058322 -73.43435811918512 152.51614306138248 -73.43435811855511 152.5161430703825 -0.9579237551263288 -143.61391058847562
220.8 -0.867978718632766 -138.40372448300835 -78.84417513944928 109.24231031026373 -78.84417513897928 109.24231030546373 -0.9080211248935405 -146.30701477784658
222.4 -0.8284010462100645 -140.7810961422502 -76.58950952718722 54.598737842227365 -76.58950952691723 54.598737845317366 -0.8645618583574053 -148.85199649240917
224.0 -0.7939327629840227 -143.03714421251908 -72.6209696786773 36.515161271921144 -72.62096967951729 36.515161267381146 -0.8266486915895748 -151.26551962690624
225.6 -0.7638929371743273 -145.1852229690425 -69.90296105540853 30.96376867941341 -69.90296105502853 30.96376868090341 -0.7935334503182147 -153.5620404269653
227.2 -0.7377119741688172 -147.2369886473274 -67.9373526529048 29.514137977273656 -67.93735265278482 29.514137975583655 -0.7645900164720504 -155.75415662014163
228.8 -0.7149116839721652 -149.20266266576024 -66.3870235268852 29.84033656347795 -66.3870235267852 29.840336564027947 -0.7392925532878705 -157.85289551018437
230.4 -0.6950892624523703 -151.0912495907397 -65.07437888482559 31.041298637027314 -65.0743788849356 31.04129863635732 -0.7171979439584735 -159.86795261877927
232.0 -0.6779043812946496 -152.9107184070153 -63.90213817666354 32.66593324008646 -63.90213817658355 32.66593323823646 -0.6979316005385996 -161.80789015515856
233.6 -0.6630687515061682 -154.66815393694148 -62.81550293154868 34.44966716359291 -62.81550293158867 34.44966716391291 -0.6811759692441964 -163.6803027559059
235.2 -0.6503376604419681 -156.3698838903527 -61.78360307857072 36.22590562682588 -61.78360307852071 36.22590562747588 -0.6666611970068879 -165.49195647663734
236.8 -0.6395030888451413 -158.02158595086217 -60.78942260308941 37.88949966631461 -60.78942260325941 37.8894996674246 -0.6541575359226386 -167.248905851657
238.4 -0.6303880979633651 -159.6283784545112 -59.82389565318161 39.37759211083623 -59.8238956531316 39.37759211136623 -0.6434691514245615 -168.95659290433906
240.0 -0.6228422422183997 -161.1948975395477 -58.88233749682038 40.65709713317014 -58.88233749671038 40.65709713348016 -0.6344290705479876 -170.619931245462
