! Created with skrf 2.0.1 (http://scikit-rf.org).
# GHz S DB R 50.0 
!freq dBS11 angS11 dBS12 angS12 dBS13 angS13
! dBS14 angS14
! dBS21 angS21 dBS22 angS22 dBS23 angS23
! dBS24 angS24
! dBS31 angS31 dBS32 angS32 dBS33 angS33
! dBS34 angS34
! dBS41 angS41 dBS42 angS42 dBS43 angS43
! dBS44 angS44
!
80.0 -5.29148004804162 164.8972158701892 -7.453480941585178 -46.20238953874196 -5.696937606386179 -76.97681817114197 -7.426930393308179 -59.61163462045195
 -7.453480941585181 -46.20238953874197 -5.11767273429697 158.23895148312283 -7.58082197299462 -62.41100719975929 -5.779854625831997 -79.91019563892058
 -5.696937606386183 -76.97681817114197 -7.58082197299462 -62.41100719975929 -5.106792193661923 157.52193334372893 -7.6266142097428276 -48.635115821907526
 -7.426930393308181 -59.611634620451966 -5.779854625831997 -79.91019563892058 -7.6266142097428276 -48.635115821907526 -5.112431303309467 157.9513796750122
81.6 -5.308441403100932 164.08908208468748 -7.4789365433980715 -46.80266324273914 -5.655313958395069 -78.50289111194914 -7.466048828815069 -60.75663091454914
 -7.478936543398069 -46.80266324273914 -5.126569299747269 157.31013154872494 -7.626609751715032 -63.595802578642925 -5.741549829931037 -81.48207010781111
 -5.655313958395068 -78.50289111194914 -7.626609751715034 -63.59580257864291 -5.117519651142391 156.5549352845004 -7.657786599714454 -49.246278540769744
 -7.466048828814069 -60.75663091454914 -5.74154982993104 -81.48207010781115 -7.657786599714472 -49.24627854076974 -5.121922864812756 157.00812435564433
83.2 -5.329202049004715 163.2591875008372 -7.502453467045127 -47.387955610585614 -5.611847553376128 -80.03562114500562 -7.505625895944128 -61.90648594222561
 -7.502453467045126 -47.387955610585614 -5.138841781676934 156.36120333784436 -7.6730383636212895 -64.78426816846529 -5.701453690132924 -83.05959725324458
 -5.611847553376126 -80.03562114500562 -7.6730383636212895 -64.78426816846529 -5.131844007649447 155.5661723627577 -7.686926502658423 -49.83971964674785
 -7.505625895944128 -61.90648594223562 -5.701453690132937 -83.05959725324452 -7.686926502658419 -49.83971964674768 -5.134869013659934 156.0441482118806
84.8 -5.3539316113794495 162.40716942576543 -7.523861380832848 -47.95845699336164 -5.56653842440885 -81.57569758007165 -7.545732065568849 -63.06187706265163
 -7.523861380832848 -47.958456993361644 -5.154625588679924 155.39190893864713 -7.720183309551601 -65.97702777871221 -5.659563100400585 -84.643419531496
 -5.5665384244088525 -81.57569758007163 -7.720183309551601 -65.97702777871221 -5.149918804253362 154.55529973445644 -7.713835681932198 -50.41557076923429
 -7.545732065568849 -63.06187706265163 -5.659563100400585 -84.643419531496 -7.713835681932198 -50.41557076923429 -5.15141189078851 155.05916084021308
86.4 -5.382811415291327 161.53262589717866 -7.542982431249951 -48.514421661615984 -5.519391582449948 -83.123829468786 -7.5864485854969494 -64.223498031006
 -7.542982431249951 -48.51442166161599 -5.174064784490834 154.40195680880774 -7.768131305107458 -67.17471823261414 -5.615879510509095 -86.23419736494758
 -5.51939158244995 -83.123829468786 -7.768131305106442 -67.1747182326141 -5.171908042565314 153.5219334130917 -7.738306201025987 -50.97403846884839
 -7.586448585496952 -64.22349803100599 -5.615879510509095 -86.23419736494758 -7.738306201025987 -50.97403846884839 -5.171702977702659 154.05283618784685
88.0 -5.416035769996529 160.63511543897414 -7.559631274614792 -49.056176630258086 -5.470417356311791 -84.6807449579481 -7.6278683372137905 -65.3920570653381
 -7.559631274614792 -49.056176630258065 -5.197313055040079 153.39102201033916 -7.816981184789028 -68.37798705296753 -5.570409223316415 -87.83260850350851
 -5.470417356311791 -84.6807449579481 -7.816981184789028 -68.37798705296753 -5.197987342751841 152.46565022487053 -7.760120467108762 -51.51541530911059
 -7.627868337213792 -65.3920570653381 -5.570409223316415 -87.83260850350851 -7.760120467108762 -51.51541530911059 -5.195904136732993 153.02481269913764
89.6 -5.4538133429072 159.71415689726027 -7.573615248657926 -49.58413128934621 -5.4196317542489245 -86.24719049176622 -7.670096762008924 -66.5682745088862
 -7.573615248657928 -49.584131289346196 -5.224534725592541 152.35874656082166 -7.86684488073784 -69.58748968523378 -5.523163710059737 -89.43934725274828
 -5.4196317542489245 -86.24719049176622 -7.86684488073784 -69.58748968523378 -5.22834517295289 151.38598786430947 -7.779051458274098 -52.040091919863606
 -7.670096762008925 -66.5682745088862 -5.523163710059737 -89.43934725274828 -7.779051458274098 -52.040091919863606 -5.224188709594194 151.97469357464212
91.2 -5.4963686339037485 158.7692293521521 -7.5847347127284195 -50.09878780722199 -5.367056847514417 -87.823929834362 -7.713252860926416 -67.75288001728198
 -7.584734712728416 -50.09878780722199 -5.255905833881457 151.30473990405534 -7.91784848097517 -70.80388617794759 -5.474159943948186 -91.05512354430094
 -5.367056847514417 -87.823929834362 -7.91784848097517 -70.80388617794759 -5.263184158670936 150.28244505336505 -7.794863171835162 -52.54856999390943
 -7.713252860926416 -67.75288001728198 -5.474159943948186 -91.05512354430094 -7.794863171835162 -52.54856999390943 -5.256742681223871 150.9020471482925
92.8 -5.543943562296706 157.79977210519837 -7.592783587713139 -50.6007522413353 -5.312721175827139 -89.4117428811453 -7.757470272861137 -68.9466091903853
 -7.592783587713137 -50.60075224133531 -5.29161526557992 150.2285795060786 -7.9701333719842715 -72.02783722866515 -5.423420751910695 -92.68066182120556
 -5.312721175827139 -89.4117428811453 -7.9701333719842715 -72.02783722866515 -5.302722481417615 149.15448180747984 -7.807311333678476 -53.04147611467839
 -7.757470272861138 -68.9466091903853 -5.423420751910695 -92.68066182120556 -7.807311333678476 -53.04147611467839 -5.293765916454236 149.80640738750625
94.4 -5.596799180193534 156.80518473807652 -7.5975501286893055 -51.09074625577877 -5.256660174182308 -91.01142422404877 -7.802898434921309 -70.15019955733877
 -7.5975501286893055 -51.090746255778775 -5.331865958882252 149.12981158138848 -8.023857470305787 -73.25999949130333 -5.370975184055601 -94.31669970834638
 -5.256660174182306 -91.01142422404877 -8.023857470305787 -73.25999949130333 -5.347195376787357 148.00151981272552 -7.816144410567265 -53.5195762612509
 -7.802898434921303 -70.15019955733877 -5.370975184055601 -94.31669970834638 -7.816144410567265 -53.5195762612509 -5.33547347766878 148.68727452335247
96.0 -5.655217527632636 155.78482723765435 -7.59881796450626 -51.56961930039554 -5.198916619789255 -92.62378143286554 -7.849703828792256 -71.36438581113555
 -7.598817964506262 -51.56961930039555 -5.376876185346911 148.00795195721366 -8.079196547565006 -74.50102002596351 -5.31685889984799 -95.96398643433407
 -5.198916619789258 -92.62378143286554 -8.079196547565006 -74.50102002596351 -5.396856743067275 146.82294291460175 -7.82110496781841 -53.98379077653589
 -7.849703828792258 -71.36438581113555 -5.31685889984799 -95.96398643433407 -7.82110496781841 -53.98379077653589 -5.3820970321622355 147.54411581902892
97.6 -5.719503646844698 154.73802017510033 -7.596367438693047 -52.03836105731424 -5.139541097162043 -94.24963301127424 -7.898071316394045 -72.58989417522426
 -7.596367438693047 -52.038361057314255 -5.4268809145588754 146.86248707928456 -8.136345653057349 -75.75152975497011 -5.261114569389148 -97.6232809671628
 -5.139541097162046 -94.24963301127424 -8.136345653057349 -75.75152975497011 -5.4519808727277885 145.61809771868892 -7.821931413763207 -54.43520951881298
 -7.898071316394048 -72.58989417522426 -5.261114569389148 -97.6232809671628 -7.821931413763207 -54.43520951881298 -5.433886358364739 146.37636648316072
99.2 -5.789987775300249 153.66404492327226 -7.589977284910892 -52.49811390439775 -5.0785924784718866 -95.88980598376774 -7.948205567388892 -73.82743576913775
 -7.589977284910891 -52.49811390439776 -5.482133270361528 145.69287516521345 -8.195520637399268 -77.01213576885807 -5.203792287097466 -99.29534982137729
 -5.07859247847189 -95.88980598376774 -8.195520637399268 -77.01213576885807 -5.512864320529949 144.3862942985815 -7.818360169453772 -54.87510684396349
 -7.948205567388892 -73.82743576913775 -5.203792287097466 -99.29534982137729 -7.818360169453772 -54.87510684396349 -5.491110960439027 145.1834307336444
100.8 -5.867027740067522 152.56214388580872 -7.579426667385745 -52.950185084776464 -5.016138415200746 -97.54513306672645 -8.000332580208745 -75.07769882311645
 -7.579426667385744 -52.95018508477645 -5.542906086832988 144.49854749853006 -8.256959779783497 -78.28341230215183 -5.144949993604459 -100.98096449178338
 -5.016138415200743 -97.54513306672645 -8.256959779783497 -78.28341230215183 -5.579827923614634 143.1268070010375 -7.810128296934941 -55.30495599077028
 -8.000332580207743 -75.07769882311645 -5.144949993604461 -100.98096449178344 -7.810128296934958 -55.304955990770225 -5.554061801239552 143.96468300738235
102.4 -5.951011579464911 151.43152069682534 -7.5644976118432385 -53.396058208015 -4.9522558358462385 -99.21644937468501 -8.05470129705024 -76.34133957331501
 -7.564497611843242 -53.39605820801499 -5.6094935730472155 143.2789098512151 -8.320925519699014 -79.56589017328544 -5.084653899806374 -102.68089846986693
 -4.9522558358462385 -99.21644937468501 -8.320925519699014 -79.56589017328544 -5.653218990841607 141.8388753315682 -7.7969766117189305 -55.72644236181839
 -8.054701297049242 -76.34133957331501 -5.08465389980638 -102.68089846986699 -7.7969766117189465 -55.72644236181833 -5.6230531648847215 142.7194692990357
104.0 -6.042360422318245 150.2713403346977 -7.5449778451850325 -53.83740364365609 -4.887031442928029 -100.9045886131861 -8.111585311871035 -77.6189716489061
 -7.5449778451850325 -53.83740364365609 -5.68221309745505 142.03334400398683 -8.38770629184603 -80.86004445701644 -5.022978905550557 -104.3959238047063
 -4.887031442927031 -100.9045886131861 -8.387706291846051 -80.86004445701647 -5.733413680774295 140.5217048881222 -7.778653293957342 -56.14147511286034
 -8.11158531187103 -77.6189716489061 -5.022978905550557 -104.3959238047063 -7.778653293957326 -56.14147511286042 -5.698424662760672 141.44710859462276
105.6 -6.14153166049242 149.08072906761018 -7.520664052110878 -54.27608730745731 -4.820562200866878 -102.61037870696732 -8.171284668740876 -78.91115373995731
 -7.520664052110877 -54.27608730745731 -5.761407105306352 140.76120932457988 -8.457618460743607 -82.16628013195557 -4.960009004596443 -106.12680717785376
 -4.820562200866876 -102.61037870696732 -8.457618460742584 -82.16628013195555 -5.820819590540637 139.1744682966799 -7.75491799748748 -56.55219638996806
 -8.171284668740876 -78.91115373995731 -4.960009004596443 -106.12680717785376 -7.75491799748748 -56.55219638996806 -5.780543400353099 140.14689435335984
107.2 -6.2490224571964585 147.85877411573682 -7.4913655439959275 -54.71417728732286 -4.752955804414921 -104.33463681754286 -8.234127745932923 -80.21837531004286
 -7.4913655439959275 -54.71417728732286 -5.847445185167728 139.4618443517067 -8.531008349559073 -83.4849154156172 -4.895837667125289 -107.87430546288532
 -4.752955804414924 -104.33463681754286 -8.531008349558054 -83.48491541561715 -5.915878581636191 137.79630607166422 -7.725546436118456 -56.9609874982473
 -8.234127745932925 -80.21837531004286 -4.895837667125289 -107.87430546288532 -7.725546436118456 -56.9609874982473 -5.869806325815388 138.81809598384277
108.8 -6.365373642129478 146.60452287519993 -7.456908319723428 -55.15394771667071 -4.684331115260429 -106.0781637069607 -8.30047321876543 -81.54104008820072
 -7.456908319723428 -55.15394771667071 -5.940726302905194 138.13456831555158 -8.608254355538559 -84.81616246004961 -4.830568190021605 -109.63916073995458
 -4.684331115260431 -106.0781637069607 -8.608254355538559 -84.81616246004961 -6.019069873950018 136.38632729514413 -7.6903354034378735 -57.37047126055644
 -8.300473218765433 -81.54104008820072 -4.830568190021605 -109.63916073995458 -7.6903354034378735 -57.37047126055644 -5.9666427839707605 137.45996024117952
110.4 -6.491174055582743 145.31698149031592 -7.417139479972644 -55.59787928112402 -4.614818552267643 -107.84173740940403 -8.370712091200645 -82.87944704246404
 -7.417139479972646 -55.59787928112402 -6.041681224088938 136.7786825001709 -8.689769141355603 -86.16010503207278 -4.764314002972131 -111.42209473241658
 -4.6148185522676455 -107.84173740940403 -8.689769141355603 -86.16010503207278 -6.130913445968826 134.94360996710932 -7.649108157369993 -57.78350983310855
 -8.370712091200645 -82.87944704246404 -4.764314002972131 -111.42209473241658 -7.649108157369993 -57.78350983310855 -6.071517302436544 136.07171245010022
112.0 -6.627065417742337 143.99511248943722 -7.3719319361534685 -56.04865574667798 -4.544560418429469 -109.62610618423798 -8.44526978267947 -84.23376850095799
 -7.3719319361534685 -56.04865574667798 -6.15077514969874 135.39347131199975 -8.776001887158165 -87.51667274398848 -4.697198915518771 -113.22380264142963
 -4.544560418429464 -109.62610618423798 -8.776001887158165 -87.51667274398848 -6.25197378748787 133.46720082543268 -7.601720074778364 -58.20319728806696
 -8.445269782679468 -84.23376850095799 -4.697198915518771 -113.22380264142963 -7.601720074778364 -58.20319728806696 -6.184932641326811 134.6525574030084
113.6 -6.773747817679176 142.63783110459846 -7.321189333354986 -56.50915592836422 -4.4737111452449865 -111.43198073592423 -8.524608252450987 -85.60402504511421
 -7.321189333354986 -56.50915592836422 -6.268510596169328 133.97820286234446 -8.867440582218336 -88.88561133675043 -4.629357287469723 -115.04494636967326
 -4.473711145244986 -111.43198073592423 -8.867440582218336 -88.88561133675043 -6.382864061873538 131.95611437033315 -7.548064455313623 -58.632846355071
 -8.524608252450987 -85.60402504511421 -4.629357287469723 -115.04494636967326 -7.548064455313623 -58.632846355071 -6.307433145540545 133.20167972888672
115.2 -6.931985940247369 141.2439997704482 -7.26485108433124 -56.9824405837951 -4.4024374328092355 -113.2600257023351 -8.609228138857238 -86.99005675278512
 -7.264851084331237 -56.98244058379511 -6.395430559354934 132.5321288140325 -8.964614327902055 -90.26644844374418 -4.560934102922653 -116.88614714254346
 -4.402437432809237 -113.2600257023351 -8.964614327902055 -90.26644844374418 -6.524250748777699 130.40933073464035 -7.488078328516892 -59.07596883757317
 -8.60922813885724 -86.99005675278512 -4.560934102922653 -116.88614714254346 -7.488078328516892 -59.07596883757317 -6.439608449305656 131.7182434515827
116.8 -7.102616179919701 139.81242013769418 -7.202897389975631 -57.47173381797342 -4.330918261720633 -115.1108504382134 -8.699670885292633 -88.39149031279342
 -7.202897389975632 -57.47173381797342 -6.532122013304788 131.0544831595675 -9.06809561511222 -91.6584541770918 -4.49208492660093 -118.74797756232118
 -4.330918261720633 -115.1108504382134 -9.06809561511222 -91.6584541770918 -6.676858856460248 128.82579192985858 -7.4217480958002575 -59.5362493896947
 -8.699670885292631 -88.39149031279342 -4.49208492660093 -118.74797756232118 -7.4217480958002575 -59.5362493896947 -6.582097596511579 130.20139036944423
118.4 -7.286554830907331 138.34182172147797 -7.135354102423449 -57.98039872640192 -4.259344751017451 -116.98499914455194 -8.796520817884453 -89.80770146603194
 -7.135354102423448 -57.98039872640192 -6.67921980932716 129.54447950547137 -9.178502528713178 -93.06059577254948 -4.42297572007755 -120.63095315663868
 -4.259344751017451 -116.98499914455194 -9.178502528713178 -93.06059577254948 -6.841477816787038 127.2043958484726 -7.349114821425527 -60.017512552947466
 -8.796520817884453 -89.80770146603194 -4.42297572007755 -120.63095315663868 -7.349114821425527 -60.017512552947466 -6.73559365822567 128.65023677991704
120.0 -7.48480759578163 136.8308460284655 -7.0622972714857895 -58.51190718011813 -4.187919835032787 -118.88294043015811 -8.900407131754784 -91.23777214671813
 -7.06229727148579 -58.51190718011813 -6.837411059767429 128.00130631953894 -9.296500818007496 -94.47148540018739 -4.353782494891311 -122.5355235103578
 -4.187919835032787 -118.88294043015811 -9.296500818007496 -94.47148540018739 -7.0189682073956 125.54398721185974 -7.270278976137826 -60.52368320142267
 -8.900407131754788 -91.23777214671813 -4.353782494891311 -122.5355235103578 -7.270278976137826 -60.52368320142267 -6.900848951837027 127.06386793251328
121.6 -7.698480724266947 135.27802463664742 -6.983857205138801 -59.069803864374535 -4.116857731495802 -120.80505642807452 -9.012005732736801 -92.68044159677453
 -6.983857205138801 -59.06980386437455 -7.007440115501899 126.42411944774258 -9.422805754719953 -95.88932008699629 -4.284690779639978 -124.46206310746747
 -4.116857731494805 -120.80505642807452 -9.422805754719988 -95.88932008699629 -7.210269486591358 123.843344407654 -7.185404435285362 -61.05874081830082
 -9.012005732736801 -92.68044159677453 -4.284690779638972 -124.46206310746742 -7.185404435285351 -61.058740818300954 -7.078680996299332 125.44132941924403
123.2 -7.928794185816573 133.68174920256646 -6.900221871654545 -59.65766491358898 -4.046383173705547 -122.751631634479 -9.132040868748543 -94.13405060099898
 -6.9002218716545425 -59.65766491358898 -7.190114278217945 124.81203102041562 -9.558183676688362 -97.31181249911887 -4.215894879246794 -126.41086204689611
 -4.046383173705546 -122.75163163447897 -9.558183676688362 -97.31181249911887 -7.416408980443975 122.10116083994538 -7.094721541346694 -61.62666830965681
 -9.132040868747549 -94.13405060099898 -4.2158948792468 -126.41086204689618 -7.094721541346702 -61.62666830965668 -7.269979377105763 123.78161448759528
124.8 -8.177097401274409 132.0402307103622 -6.811639475891322 -60.27905172869526 -3.976730381467324 -124.72284168327526 -9.261286468609327 -95.59647783092527
 -6.811639475891322 -60.27905172869526 -7.386310430028759 123.16409363505461 -9.703453084007243 -98.73611108198973 -4.147596906964413 -128.38211683683076
 -3.976730381467324 -124.72284168327526 -9.703453084007243 -98.73611108198973 -7.638512432211475 120.31601899514055 -6.998529059115423 -62.231396336778474
 -9.261286468609327 -95.59647783092527 -4.147596906964413 -128.38211683683076 -6.998529059115423 -62.231396336778474 -7.475713745764635 122.08364597140618
126.4 -8.444888221372205 130.35144435265136 -6.718420055728009 -60.93746080484142 -3.908141748939012 -126.7187423207214 -9.400567084164011 -97.0650670836214
 -6.718420055728007 -60.93746080484142 -7.5969828167662135 121.47927840079902 -9.85948511117069 -100.15870774691732 -4.080005573613617 -130.3759215161314
 -3.908141748939012 -126.71874232072143 -9.85948511116965 -100.15870774691732 -7.877816517000196 118.48635487110087 -6.897194880156247 -62.87674439729155
 -9.400567084164013 -97.0650670836214 -4.080005573613617 -130.3759215161314 -6.897194880156247 -62.87674439729155 -7.696943245159503 120.34625116608926
128.0 -8.73383605736683 128.61305517214734 -6.620935966928268 -61.6362706237254 -3.8408662330372687 -128.7392588954854 -9.55075830153427 -98.53654394268541
 -6.620935966928264 -61.6362706237254 -7.82317229076991 119.75644505153399 -10.027203138713482 -101.57533090560813 -4.013334724334181 -132.3922593937697
 -3.840866233037268 -128.7392588954854 -10.027203138713482 -101.57533090560813 -8.135683846823365 116.61040966831074 -6.791155370388239 -63.566360091332186
 -9.550758301534271 -98.53654394268543 -4.013334724334181 -132.3922593937697 -6.791155370388239 -63.566360091332186 -7.934827739158613 118.56812748923501
129.6 -9.045810362752075 126.82231779170108 -6.519621155137422 -62.378686860391014 -3.775157433617424 -130.78417672446102 -9.712786445282422 -100.00692006036101
 -6.519621155137423 -62.378686860391014 -8.066017408729829 117.99430183264467 -10.207581223159414 -102.98082117807468 -3.947801620843113 -134.43099573257197
 -3.775157433617424 -130.78417672446102 -10.207581223159414 -102.98082117807468 -8.413621152490782 114.68616462741872 -6.680913298954183 -64.30365815694313
 -9.712786445282422 -100.00692006036101 -3.947801620843113 -134.43099573257197 -6.680913298954183 -64.30365815694313 -8.190641338258605 116.74779612449547
131.2 -9.382916063942648 124.97594099292091 -6.414969151202198 -63.16768730517967 -3.7112713666121993 -132.85313274066968 -9.8876273394462 -101.47138284256968
 -6.4149691512021985 -63.16768730517967 -8.326767896122865 116.19135220915058 -10.401640903700063 -104.36898651688473 -3.8836249770305056 -136.49187173923607
 -3.7112713666121993 -132.85313274066968 -10.401640903700063 -104.36898651688473 -8.713301542811497 112.71125348908414 -6.567034335520448 -65.09176093865536
 -9.8876273394462 -101.47138284256968 -3.8836249770305056 -136.49187173923607 -6.567034335520448 -65.09176093865536 -8.46578886159806 114.88353998218575
132.8 -9.747538084441715 123.06990413006297 -6.307529768775039 -64.00596799673448 -3.6494639435760434 -134.9456088557345 -10.07630380328604 -102.92416779873449
 -6.307529768775041 -64.00596799673448 -8.606801140146498 114.34582455426334 -10.610445771752646 -105.73243280308021 -3.821022767533307 -138.5745002338204
 -3.6494639435760416 -134.94560885573446 -10.610445771752646 -105.73243280308021 -9.036592026553189 110.68284507075423 -6.450142154039959 -65.9334419582963
 -10.07630380328604 -102.92416779873449 -3.821022767533307 -138.5745002338204 -6.450142154039959 -65.9334419582963 -8.761826070716932 112.97332112173699
134.4 -10.142397862551277 121.09920674506688 -6.197904529092968 -64.89589209289423 -3.5899881854999647 -137.06092748732422 -10.279881434686967 -104.35841017602421
 -6.197904529092964 -64.89589209289423 -8.907642568542844 112.45557974889797 -10.835092942261692 -107.06236518138228 -3.760209842426059 -140.6783633813601
 -3.5899881854989646 -137.0609274873242 -10.835092942261749 -107.06236518138225 -9.385587864736909 108.59748560744697 -6.33091223102846 -66.83107418767135
 -10.279881434686963 -104.35841017602421 -3.760209842426059 -140.6783633813601 -6.33091223102846 -66.83107418767149 -9.080484768086768 111.01467111979115
136.0 -10.570625816309096 119.05752416727914 -6.0867408844463355 -65.83944296927314 -3.533091214908333 -139.19824969542313 -10.499462052849333 -105.76597173482314
 -6.086740884446336 -65.83944296927315 -9.230991027616222 110.51798990433772 -11.076700209433872 -108.3483545668361 -3.7013953960008457 -142.80281284239447
 -3.5330912149083367 -139.1982496954231 -11.076700209433872 -108.3483545668361 -9.762655836188648 106.45088633989342 -6.2100644727723004 -67.78658448307071
 -10.499462052849333 -105.76597173482313 -3.7013953960008457 -142.80281284239447 -6.2100644727723004 -67.78658448307071 -9.423704195789632 109.00454549308434
137.6 -11.035855191511402 116.93672852111574 -5.9747253567598735 -66.83818292972127 -3.479011087513873 -141.3565763386013 -10.73617390756587 -107.13723764410128
 -5.9747253567598735 -66.83818292972128 -9.57875060974507 108.52977894111321 -11.336387159039669 -109.57806298923883 -3.6447803528025773 -144.94707265915326
 -3.479011087512873 -141.35657633860126 -11.336387159039727 -109.57806298923873 -10.170489199096302 104.23763560923693 -6.088354846397567 -68.80141544004452
 -10.736173907565876 -107.13723764410128 -3.6447803528025773 -144.94707265915326 -6.088354846397567 -68.80141544004465 -9.793670628348094 106.93912982889066
139.2 -11.542344828468226 114.72621322827233 -5.862575748291795 -67.89321874433564 -3.4279735419777984 -143.53475260176563 -10.991157379049795 -108.46087754356566
 -5.862575748291797 -67.89321874433564 -9.953070828273278 106.48681213858204 -11.615247777194671 -110.73692098685862 -3.5905547488736795 -147.11024511779604
 -3.4279735419777984 -143.53475260176563 -11.615247777194671 -110.73692098685862 -10.612178087084951 101.95080522961428 -5.9665662224578275 -69.87649567584825
 -10.991157379049794 -108.46087754356566 -3.5905547488736795 -147.11024511779604 -5.9665662224578275 -69.87649567584825 -10.192867672851545 104.8135801255949
140.8 -12.095141369021663 112.41192420048056 -5.75103261583953 -69.00517500516122 -3.3801887626215303 -145.73147615127127 -11.26554433747653 -109.72356397127123
 -5.751032615839532 -69.00517500516122 -10.356397636804985 104.38381635025347 -11.91431105714324 -111.80775060139788 -3.538895199100825 -149.291319726301
 -3.3801887626215303 -145.73147615127127 -11.91431105714324 -111.80775060139788 -11.091300388584367 99.5814061258984 -5.84549866044838 -71.01221925952883
 -11.26554433747653 -109.72356397127123 -3.538895199100825 -149.291319726301 -5.84549866044838 -71.01221925952883 -10.624140632322433 102.62167204424685
142.4 -12.700295656051834 109.97494227468137 -5.640850225875474 -70.17417602086334 -3.3358482635744746 -147.94530904836333 -11.560428533086476 -110.90964085766332
 -5.640850225875477 -70.17417602086334 -10.791538597799324 102.21400433680596 -12.234484646800563 -112.77032952704822 -3.489962551385238 -151.4891853141839
 -3.3358482635744786 -147.94530904836336 -12.234484646800563 -112.77032952704822 -11.61203995296637 97.1176246774777 -5.725959382639122 -72.20843470051614
 -11.560428533086476 -110.90964085766332 -3.489962551385238 -151.4891853141839 -5.725959382639122 -72.20843470051614 -11.090779442635018 100.35532166635772
144.0 -13.365153963774892 107.38935996985786 -5.532787224701446 -71.39983667075377 -3.2951220125244447 -150.17469339487377 -11.87682325127145 -112.00073520297377
 -5.532787224701449 -71.39983667075376 -11.261746599605118 99.96856386041341 -12.576474573798722 -113.60089721772128 -3.4438998335417463 -153.70264510559142
 -3.2951220125244447 -150.17469339487377 -12.576474573798722 -113.60089721772128 -12.179341400724265 94.54373279808541 -5.6087526856552605 -73.4644435897115
 -11.876823251271444 -112.00073520297376 -3.4438998335417463 -153.70264510559142 -5.6087526856552605 -73.4644435897115 -11.5966262800413 98.00392121259758
145.6 -14.098752461251248 104.61901440749658 -5.4275972639761 -72.68126232217897 -3.258155916247098 -152.41797050389897 -12.215600868757097 -112.97530735749899
 -5.4275972639760965 -72.68126232217897 -11.770828002483821 97.63595189736016 -12.940671413249863 -114.27161495421156 -3.400830598012611 -155.93043444200208
 -3.258155916247098 -152.41797050389897 -12.940671413249863 -114.27161495421156 -12.79911402138297 91.83850053424958 -5.494670033507559 -74.77900867652914
 -12.215600868757093 -112.97530735749899 -3.400830598012611 -155.93043444200208 -5.494670033507559 -74.77900867652914 -12.146216109166971 95.55340218349005
147.2 -14.912352092922948 101.6123032279273 -5.326019817599031 -74.01705759901084 -3.225069787233032 -154.67340319498084 -12.577406750073031 -113.80814131848085
 -5.326019817599033 -74.01705759901084 -12.32328307771568 95.20090148553868 -13.326989901429783 -114.75001358029222 -3.360857761629755 -158.17124065060352
 -3.225069787233033 -154.67340319498084 -13.326989901429783 -114.75001358029222 -13.478501166307257 88.97282956697616 -5.384480560799138 -76.15037087312179
 -12.577406750073033 -113.80814131848086 -3.360857761629755 -158.17124065060352 -5.384480560799138 -76.15037087312179 -12.744961367948168 92.98488702656394
148.8 -15.820155810007668 98.2936680035947 -5.228771411282516 -75.40534348845756 -3.1959559000035105 -156.93920061153756 -12.96253700654651 -114.46978920993755
 -5.228771411282516 -75.40534348845756 -12.924489177642828 92.642994352552 -13.734645202295399 -114.99850207682383 -3.3240630220443856 -160.4237243816964
 -3.1959559000035167 -156.93920061153756 -13.734645202295399 -114.99850207682383 -14.226235416480801 85.90613073529255 -5.278922191503048 -77.57627441549754
 -12.962537006546516 -114.46978920993755 -3.3240630220443856 -160.4237243816964 -5.278922191503048 -77.57627441549754 -13.399395754738979 90.2727030614214
150.4 -16.840231097387793 94.54905115245191 -5.136537461884924 -76.84378200512549 -3.170878226704926 -159.2135447771855 -13.370765997066927 -114.92600877558547
 -5.136537461884924 -76.8437820051355 -13.58094016017163 89.93456016482737 -14.161845741208943 -114.97407809104793 -3.290506909147303 -162.68654158518322
 -3.170878226704926 -159.2135447771855 -14.161845741209032 -114.97407809104877 -15.05310056035621 82.58061273498794 -5.178693548181067 -79.05399918971332
 -13.370765997066927 -114.92600877558547 -3.2905069091462873 -162.68654158518322 -5.178693548181067 -79.05399918971332 -14.117496388385785 87.38137957454992
152.0 -17.995547638303016 90.19999943515211 -5.049964891299318 -78.32960740767012 -3.149872414625317 -161.49461794600012 -13.801105415316322 -115.13727746600013
 -5.049964891299318 -78.32960740767012 -14.300558520142193 87.0375023095465 -14.60538212325417 -114.62849182775967 -3.2602294995153125 -164.9583651824358
 -3.1498724146253183 -161.49461794600012 -14.60538212325417 -114.62849182775967 -15.972508921043566 78.91198015808169 -5.084446790174403 -80.58039906035451
 -13.801105415316322 -115.13727746600013 -3.2602294995153125 -164.9583651824358 -5.084446790174403 -80.58039906035451 -14.909106794984641 84.26097357931937
153.6 -19.31458348581058 84.95556015345306 -4.969655641063842 -79.85966279746101 -3.132946534482843 -163.78062969387105 -14.251473526167844 -115.05854352627105
 -4.969655641063844 -79.85966279746101 -15.09309697358194 83.89836151573301 -15.060099279303131 -113.90927989826282 -3.233251786267325 -167.2379054300052
 -3.132946534482844 -163.78062969387105 -15.060099279303131 -113.90927989826282 -17.001144969886305 74.77374694391261 -4.996781478972799 -82.15194492330748
 -14.251473526167842 -115.05854352627102 -3.233251786267325 -167.2379054300052 -4.996781478972799 -82.15194492330748 -15.786479291102548 80.83955777121656
155.2 -20.829253039449355 78.31989067700312 -4.8961611713204505 -81.43044082753961 -3.1200825895134514 -166.0698426392096 -14.718253444141451 -114.63949845690962
 -4.896161171320452 -81.43044082754962 -15.970636038909454 80.44039611970928 -15.51826416015944 -112.76230244886938 -3.2095776578699278 -169.5239279733436
 -3.1200825895134514 -166.0698426392096 -15.518264160159582 -112.76230244887024 -18.15942346590429 69.96983570361901 -4.916239526597009 -83.76477115208003
 -14.718253444141451 -114.63949845690962 -3.209577657869916 -169.52392797334363 -4.916239526597009 -83.76477115208003 -16.764925210432477 77.01072358955358
156.8 -22.561694320762786 69.41591810416811 -4.829977983835718 -83.03812721848881 -3.111238734165718 -168.36059570077882 -15.195729329791718 -113.82583868387881
 -4.829977983835717 -83.03812721848881 -16.948139643863335 76.55044975062044 -15.96889868502031 -111.13663084512594 -3.189196400515465 -171.81526866303113
 -3.111238734165718 -168.36059570077882 -15.968898685009489 -111.13663084513324 -19.47084305154602 64.18525144395225 -4.843301240601823 -85.41472411700391
 -15.195729329791718 -113.82583868387881 -3.189196400515465 -171.81526866303113 -4.843301240601823 -85.41472411700391 -17.86344451210241 72.6120292199461
158.4 -24.47010509957022 56.70286730038812 -4.771544166151504 -84.67864581530947 -3.1063521105505028 -170.65132388425945 -15.675420031667503 -112.56221865965946
 -4.771544166151502 -84.67864581530947 -18.043879833953472 72.05643909428284 -16.39725268604181 -108.99267609032913 -3.1720856027216486 -174.1108443538368
 -3.1063521105505014 -170.65132388425948 -16.39725268604181 -108.99267609032913 -20.95714946134793 56.896459459071366 -4.77838243959262 -87.0974115279901
 -15.675420031667503 -112.56221865965946 -3.1720856027216486 -174.1108443538368 -4.77838243959262 -87.0974115279901 -19.10480932981027 67.386539805815
160.0 -26.27534047626702 37.95757893293025 -4.721236915263687 -86.34770402072091 -3.1053421740346883 -172.9405737506209 -16.145397372095687 -110.7978110720209
 -4.721236915263687 -86.34770402072091 -19.279062158572383 66.68762105350406 -16.784742515813345 -106.31397159597381 -3.1582143112286625 -176.40965911578715
 -3.1053421740346883 -172.9405737506209 -16.784742515813345 -106.31397159597381 -22.61934267654619 47.2186697689476 -4.721832577991517 -88.80825147873762
 -16.14539737209569 -110.7978110720209 -3.1582143112286625 -176.40965911578715 -4.721832577991517 -88.80825147873762 -20.513269838913644 60.91262020636668
161.6 -27.205213781916363 12.594829492169978 -4.679370966754983 -88.04083759519796 -3.1081143495279844 -175.227013942428 -16.589796347304983 -108.49537512862797
 -4.679370966754986 -88.04083759519796 -20.67448100732961 60.00357741037423 -17.109819497784144 -103.12155181921862 -3.1475462669014282 -178.7108055525971
 -3.1081143495279835 -175.227013942428 -17.109819497784144 -103.12155181921862 -24.375647196687954 33.73232787785808 -4.673933790327464 -90.5425202430376
 -16.58979634730498 -108.49537512862796 -3.1475462669014282 -178.7108055525971 -4.673933790327464 -90.5425202430376 -22.103798938157567 52.47813543426542
163.2 -26.559750927059152 -13.548988638874935 -4.646197830879018 -89.75345400977324 -3.1145638398660154 -177.50944041618322 -16.988888472023017 -105.64408480508322
 -4.64619783087902 -89.75345400977324 -22.237396927283374 51.27260309763318 -17.35020133659953 -99.48722053212893 -3.1400430403960193 178.98653878292768
 -3.1145638398660154 -177.50944041618322 -17.35020133659953 -99.48722053212893 -25.908045256677433 14.786982702008372 -4.634900744849722 -92.29539807891554
 -16.988888472023014 -105.64408480508322 -3.140043040395015 178.98653878292774 -4.634900744849722 -92.29539807891554 -23.84382204440928 40.891735906416784
164.8 -24.859941012677083 -33.585009251107024 -4.6219057218320225 -91.48087375707694 -3.124579399104019 -179.78677632891694 -17.320218970259017 -102.27458384411693
 -4.62190572183202 -91.48087375707694 -23.91886636788572 39.31206569485281 -17.486483677863728 -95.53919808844114 -3.1356668911172747 176.68311957756077
 -3.1245793991040176 -179.78677632891694 -17.486483677863728 -95.53919808844114 -26.552235202686862 -9.176551310743267 -4.604881184838288 -94.0620125196775
 -17.320218970259017 -102.27458384411693 -3.1356668911172747 176.68311957756077 -4.604881184838288 -94.0620125196775 -25.54119878025046 24.44634373350153
166.4 -22.954036253717266 -47.19491889844538 -4.606620060733532 -93.21836925164183 -3.1380468874305336 177.94193316268814 -17.561216217605534 -98.47177281771182
 -4.606620060733537 -93.21836925164183 -25.50108580734131 22.564107878771296 -17.506314580008887 -91.4534303991777 -3.134383189391997 174.37961796313368
 -3.1380468874305336 177.94193316268814 -17.506314580008887 -91.4534303991777 -25.879022645012917 -32.9480802799872 -4.583957033706682 -95.83747885341174
 -17.56121621761553 -98.47177281771182 -3.134383189391989 174.3796179631341 -4.583957033706695 -95.83747885341234 -26.658119907170406 2.1857151605398992
168.0 -21.197472409175102 -56.602599077499086 -4.600404436216095 -94.9612011652346 -3.154852440691096 175.67753064365547 -17.693147868982095 -94.3781333928746
 -4.600404436216097 -94.9612011652346 -26.45051071117915 0.5215627060330316 -17.407530519092866 -87.42891805750962 -3.1361622698288416 172.07666589860187
 -3.154852440691098 175.67753064365547 -17.407530519092866 -87.42891805750962 -24.35756159786951 -51.533296673341965 -4.572145946331668 -97.61693770084037
 -17.6931478689821 -94.37813339288459 -3.1361622698278495 172.07666589860193 -4.572145946331655 -97.61693770084037 -26.523233673273324 -22.617062110532917
169.6 -19.65727098209558 -63.50092378348536 -4.603261917958352 -96.70465223111204 -3.1748851147993533 173.420759925458 -17.705369648189354 -90.18114107353205
 -4.603261917958353 -96.70465223111204 -26.200688636778466 -23.309792428243416 -17.19873579160153 -83.65423206977805 -3.1409806211686977 169.77486369525064
 -3.1748851147993533 173.420759925458 -17.19873579160153 -83.65423206977805 -22.638647150718057 -64.70998172032415 -4.569403202854317 -99.39558977892054
 -17.705369648189354 -90.18114107354204 -3.1409806211687084 169.77486369525064 -4.569403202854303 -99.39558977892054 -25.241335019370297 -43.73793125360812
171.2 -18.316604503979374 -68.86782174025478 -4.61513663612077 -98.44405870055739 -3.198038901522769 171.1722822840426 -17.598106290048776 -86.08483184343739
 -4.615136636120772 -98.44405870055739 -24.923488575709403 -43.41645295506223 -16.897020978339818 -80.27812623094175 -3.1488213615632326 167.47479853883203
 -3.1980389015227715 171.1722822840426 -16.897020978339818 -80.27812623094175 -21.021564119294457 -74.15073534433584 -4.575623860680479 -101.1687280743981
 -17.598106290048776 -86.08483184343739 -3.1488213615632326 167.47479853883203 -4.575623860680479 -101.1687280743981 -23.52238444646804 -59.010798036752256
172.8 -17.143519221739872 -73.25485134709685 -4.635915561517761 -100.17483973799447 -3.2242140541637596 168.93269434420552 -17.38236234849776 -82.27488596116447
 -4.635915561517762 -100.17483973799447 -23.261135786158846 -58.107532657629996 -16.523979401549596 -77.39441901027152 -3.1596739944707153 165.1770628237957
 -3.224214054162756 168.93269434420552 -16.523979401549695 -77.39441901027966 -19.58018898055969 -81.24533196877279 -4.590645103412703 -102.93176774009913
 -17.38236234849776 -82.27488596116447 -3.1596739944707153 165.1770628237957 -4.5906451034127 -102.93176774009919 -21.822904322116514 -69.78769853260965
174.4 -16.108395748537376 -76.98402945369132 -4.665430444990953 -101.89252509167771 -3.2533177061909546 166.7025464607223 -17.077011249323952 -78.89093548045773
 -4.665430444990955 -101.89252509167773 -21.616278472674235 -68.62659111513743 -16.101731728320132 -75.04275051033173 -3.173533485599371 162.88227116893654
 -3.2533177061909564 166.7025464607223 -16.101731728320132 -75.04275051033173 -18.31107730720425 -86.85494285413507 -4.614248749765162 -104.6802740634467
 -17.077011249323952 -78.89093548045773 -3.173533485599371 162.88227116893654 -4.614248749765162 -104.6802740634467 -20.28699285562285 -77.70024630911722
176.0 -15.18711557126034 -80.2521678251417 -4.7034598977634925 -103.59278138364454 -3.2852638094134927 164.48236048905548 -16.70452141722049 -76.01497838432452
 -4.703459897763491 -103.59278138364452 -20.121077589805854 -76.44149095154626 -15.650128035031273 -73.21977676525037 -3.1903987419892346 160.5910751059001
 -3.285263809413494 164.48236048905548 -15.650128035031273 -73.21977676525039 -17.191852513980628 -91.4898615730751 -4.6461639087904425 -106.40998884610903
 -16.70452141722049 -76.01497838432454 -3.1903987419892346 160.5910751059001 -4.6461639087904425 -106.40998884610903 -18.9313895546446 -83.82490620232468
177.6 -14.360690669097396 -83.18497878328012 -4.7497316153558975 -105.27143731683678 -3.319972457522897 162.27264594626322 -16.287061650181897 -73.67545131422678
 -4.7497316153559 -105.27143731683678 -18.793938549152504 -82.54106517320308 -15.185394586550991 -71.89371608743416 -3.210270607503615 158.30417462152877
 -3.3199724575228977 162.27264594626322 -15.185394586550991 -71.89371608743416 -16.19891752021845 -95.45843537604011 -4.686069788090618 -108.11685547755285
 -16.287061650181897 -73.67545131422678 -3.210270607503615 158.30417462152877 -4.686069788090618 -108.11685547755285 -17.73732137914086 -88.80010423654221
179.2 -13.614238714215317 -85.86596369851127 -4.803924764464759 -106.9245080234856 -3.35736869319876 160.07391373511436 -15.843983472610761 -71.8603168683756
 -4.80392476446476 -106.92450802348561 -17.619527282175955 -87.52421229997196 -14.719897221501233 -71.01736331916152 -3.233149512714223 156.02232596878923
 -3.357368693198761 160.07391373511436 -14.719897221501233 -71.01736331916152 -15.311902081771274 -98.95377734116303 -4.733598677434019 -109.79704289418146
 -15.84398347261076 -71.86031686838561 -3.2331495127142333 156.0223259687892 -4.733598677434002 -109.79704289418142 -16.680301287947053 -93.00578702374868
180.8 -12.93602332051317 -88.35248615461813 -4.865672563761329 -108.54821867765538 -3.397380920368329 157.88668681624463 -15.390761506550326 -70.5320681198954
 -4.865672563761328 -108.54821867765538 -16.57610836264802 -91.75327469587255 -14.262537086530854 -70.53761453854992 -3.259032930112679 153.7463454144742
 -3.397380920368329 157.8866868162446 -14.262537086530854 -70.53761453854992 -14.51420039894481 -102.10143930145237 -4.788339140268821 -111.44696850690269
 -15.39076150655033 -70.5320681198954 -3.259032930112679 153.7463454144742 -4.788339140268821 -111.44696850690269 -15.738196935258191 -96.67552057523064
182.4 -12.316695107452526 -90.68509717613009 -4.934565095437588 -110.13902737701949 -3.4399390567635906 155.71150745108048 -14.93896768025059 -69.6403434191195
 -4.9345650954365885 -110.1390273770195 -15.643462116586761 -95.45373653296735 -13.819392010909796 -70.40149107708147 -3.287912787816707 151.47710885732468
 -3.439939056762591 155.71150745108048 -13.819392010909796 -70.40149107708147 -13.792488060864748 -104.98590894690231 -4.849839449565424 -113.06332005148852
 -14.93896768025059 -69.6403434191195 -3.2879127878167114 151.47710885732474 -4.849839449565422 -113.06332005148862 -14.892747263574698 -99.95839628428327
184.0 -11.74872105373472 -92.89316141020736 -5.010152384383203 -111.693647185314 -3.4849725653412027 153.54894087378602 -14.496782259278207 -69.130758269024
 -5.010152384383203 -111.693647185314 -14.804621535958841 -98.77081451809634 -13.394374646990633 -70.55945685349178 -3.3197729870238524 149.21554748766803
 -3.4849725653412027 153.548940873786 -13.394374646990633 -70.55945685349178 -13.136076741075861 -107.66579029925964 -4.917611302157757 -114.64307619748853
 -14.496782259278202 -69.130758269024 -3.3197729870238524 149.21554748766803 -4.917611302157757 -114.64307619748853 -14.129281982076893 -102.95303206143618
185.6 -11.225961203378926 -94.99837478227869 -5.09194777661547 -113.20906711724646 -3.5324084972684675 151.39957548405357 -14.06968020336847 -68.95027069457645
 -5.091947776615466 -113.20906711724645 -14.045795706638238 -101.80117115018764 -12.989803457832416 -70.9669283787261 -3.354587152113629 146.9626398778874
 -3.532408497268469 151.39957548405354 -12.989803457832416 -70.9669283787261 -12.536339960029647 -110.18280961927373 -4.991133837932414 -116.1835256395572
 -14.06968020336847 -68.95027069457645 -3.354587152113629 146.9626398778874 -4.991133837932414 -116.1835256395572 -13.436064899077087 -105.72674545745366
187.2 -10.743354396805845 -97.01703611217619 -5.179431638849373 -114.68257175887264 -3.582169665293371 149.26401984092738 -13.661093986004374 -69.04999478119264
 -5.179431638849373 -114.68257175887264 -13.355853832030773 -104.61107355963283 -12.606856915289713 -71.58469998277145 -3.392316719307212 144.71940105790583
 -3.582169665293369 149.26401984092738 -12.606856915289713 -71.58469998277145 -11.986253688816905 -112.5673455316759 -5.069857977732238 -117.68228430904807
 -13.661093986004378 -69.04999478119262 -3.392316719307212 144.71940105790583 -5.069857977732238 -117.68228430904807 -12.803661368795185 -108.32674858934077
188.8 -10.296683317509185 -98.96155788433778 -5.272055388023821 -116.111759150199 -3.63417304644682 147.14289690310102 -13.272970896374815 -69.38636954288903
 -5.272055388023821 -116.111759150199 -12.725783630803388 -107.24712433923656 -12.245916910574216 -72.37878003783153 -3.4329094427096067 142.48686924733286
 -3.63417304644682 147.14289690310102 -12.245916910574216 -72.37878003783153 -11.48004208922423 -114.84193651624095 -5.153211077931935 -119.13731028286576
 -13.272970896374815 -69.38636954288903 -3.4329094427096067 142.48686924733286 -5.153211077931935 -119.13731028286576 -12.224420818299818 -110.78692195060904
190.4 -9.882397188973375 -100.84149845728419 -5.369245844394791 -117.49455651808485 -3.6883284891427923 145.03683606671515 -12.906207895072793 -69.92137169299484
 -5.369245844394791 -117.49455651808485 -12.148232243842411 -109.74281752675232 -11.906820362007227 -73.31994663312426 -3.476298367510985 140.2660909816487
 -3.6883284891427914 145.03683606671518 -11.906820362007227 -73.31994663312426 -11.012907438235855 -117.02357294883167 -5.24060188177597 -120.5469159401838
 -12.906207895072793 -69.92137169299484 -3.476298367510985 140.2660909816487 -5.24060188177597 -120.5469159401838 -11.692075605529912 -113.13205419290095
192.0 -9.497476641138368 -102.66428500417092 -5.470409885746558 -118.82923343852771 -3.7445377742145594 142.94646361687228 -12.560976163406558 -70.62222839703772
 -5.470409885746558 -118.82923343852771 -11.617143081737566 -112.12267446864706 -11.589039893426651 -74.3832006639495 -3.522401291476717 138.05810538299457
 -3.7445377742145594 142.94646361687228 -11.589039893426651 -74.3832006639495 -10.58082436205208 -119.12523644713993 -5.3314257290804505 -121.9097769252611
 -12.560976163406558 -70.62222839703772 -3.522401291476717 138.05810538299457 -5.3314257290804505 -121.9097769252611 -11.20143569332435 -115.38058002393375
193.6 -9.139329721611041 -104.43573151158832 -5.574939364577331 -120.11441202578892 -3.80269405407033 140.8723922264111 -12.23695668241033 -71.46090614841891
 -5.574939364577328 -120.11441202578891 -11.127475767059689 -114.404931810441 -11.29181187973716 -75.54721162600632 -3.5711207093654385 135.86392829532375
 -3.80269405407033 140.8723922264111 -11.29181187973716 -75.54721162600632 -10.180382402633214 -121.156959916641 -5.4250699682608055 -123.22493751270834
 -12.23695668241033 -71.46090614841891 -3.5711207093654385 135.86392829532375 -5.4250699682608055 -123.22493751270834 -10.74815713029894 -117.54639930980493
195.2 -8.80571116134034 -106.16041772227264 -5.68221623567654 -121.34907378862188 -3.862681670832539 138.81521011107813 -11.93350818778054 -72.41353103863187
 -5.682216235676538 -121.34907378862188 -10.674991843359729 -116.60333663479601 -11.014226379199792 -76.79380231522443 -3.622344212052013 133.6845369337065
 -3.862681670832539 138.81521011107813 -11.014226379199792 -76.79380231522443 -9.808664801940024 -123.12657439695644 -5.520919498958376 -124.49181204113303
 -11.93350818778054 -72.41353103863189 -3.622344212052013 133.6845369337065 -5.520919498958376 -124.49181204113303 -10.328566024529797 -119.64011727954892
196.8 -8.494659195465275 -107.84197156362033 -5.791617829204112 -122.53256285739548 -3.9243763342141125 136.77547039460455 -11.649785478912111 -73.45982104670547
 -5.791617829204112 -122.53256285739548 -10.256090788234184 -118.72837512470464 -10.755289876673146 -78.10749101942403 -3.675945293821339 131.52085560585198
 -3.9243763342141125 136.77547039460455 -10.755289876673146 -78.10749101942403 -9.463154515610539 -125.04024624321458 -5.618362360833974 -125.71018217332526
 -11.649785478912111 -73.45982104670546 -3.675945293821339 131.52085560585198 -5.618362360833974 -125.71018217332526 -9.93952395815403 -121.66990988957532
198.4 -8.20444577588508 -109.48328310322302 -5.902522194669741 -123.66458536727053 -3.9876456238487434 134.75368115502945 -11.384822037339744 -74.58256758508055
 -5.902522194669744 -123.66458536727053 -9.867684035190145 -120.78813218086852 -10.513968805125081 -79.47509512480138 -3.73178450803295 129.37374294747104
 -3.9876456238487434 134.75368115502943 -10.513968805125081 -79.47509512480138 -9.141660825279965 -126.9028707250636 -5.716795274983637 -126.88018985031695
 -11.384822037339744 -74.58256758508055 -3.73178450803295 129.37374294747104 -5.716795274983637 -126.88018985031695 -9.578324386286667 -123.64214024476234
200.0 -7.9335370958821905 -111.08666888149627 -6.014313434450487 -124.74520487281475 -4.052349769205486 132.75029653328525 -11.137587310589483 -75.76717965520476
 -6.014313434450487 -124.74520487281478 -9.50709764816754 -122.78890462974958 -10.289219547369985 -80.88539287157866 -3.789710903128612 127.24398099752672
 -4.052349769205485 132.75029653328528 -10.289219547369985 -80.88539287157866 -8.842261647875956 -128.71836515933634 -5.8156290395014985 -128.00232592986967
 -11.137587310589481 -75.76717965520476 -3.789710903128612 127.24398099752672 -5.8156290395014985 -128.00232592986967 -9.242612315490408 -125.56180574066225
201.6 -7.680562120386721 -112.65399953699522 -6.126386941792986 -125.77483376462426 -4.118342653071989 130.76570917717575 -10.90702614641999 -77.00129161794426
 -6.126386941792987 -125.77483376462426 -9.171996647916078 -124.73564611136604 -10.080008951639105 -82.3288369494231 -3.84956366744687 125.13226631796965
 -4.11834265307199 130.76570917717575 -10.080008951639105 -82.3288369494231 -8.563257895515065 -130.48989029705433 -5.914293679925637 -129.0774146256422
 -10.907026146419991 -77.00129161794426 -3.84956366744687 125.13226631796965 -5.914293679925637 -129.0774146256422 -8.930321585935467 -127.43286754112512
203.2 -7.444287373626005 -114.18679975183379 -6.238154457547026 -126.75422076179099 -4.185472981513027 128.80024420080903 -10.69208570141303 -78.27442977761102
 -6.238154457547028 -126.75422076179099 -8.860325775859819 -126.63229454325935 -9.885328194790695 -83.79731277466178 -3.9111739119447724 123.03920325223517
 -4.185472981513027 128.80024420080903 -9.885328194790695 -83.79731277466178 -8.303137151687764 -132.22001948089084 -6.012243258778418 -130.1065939855181
 -10.69208570141303 -78.27442977761102 -3.911173911943779 123.03920325223527 -6.012243258778418 -130.1065939855181 -8.639625557143368 -129.25849658380443
204.8 -7.223596644325854 -115.6863269514765 -6.349048862097284 -127.68443464654247 -4.253585563720284 126.85415474185754 -10.491733575853283 -79.57773073166248
 -6.349048862097284 -127.68443464654248 -8.57026280574119 -128.48201606576134 -9.704201976082725 -85.28393453039176 -3.97436652391658 120.96529932158198
 -4.253585563720284 126.85415474185754 -9.704201976082725 -85.28393453039176 -8.060544595249455 -133.9108690951983 -6.108960255756618 -131.0912927666312
 -10.491733575853283 -79.5777307316625 -3.97436652391658 120.96529932158198 -6.108960255756618 -131.0912927666312 -8.368898067855763 -131.04125924588476
206.4 -7.017474571686089 -117.15363344573055 -6.458528623804344 -128.566844500974 -4.322522648449345 124.92761912162601 -10.304969804641345 -80.903704029224
 -6.458528623804344 -128.566844500974 -8.300181488457232 -130.2873885341767 -9.535694426939035 -86.78287276729134 -4.038962031329339 118.9109626725282
 -4.322522648449342 124.92761912162601 -9.535694426939035 -86.78287276729134 -7.834259593781313 -135.56419986059518 -6.2039594409680685 -132.0332041650246
 -10.304969804641345 -80.903704029224 -4.038962031329339 118.9109626725282 -6.2039594409680685 -132.0332041650246 -8.116682320415581 -132.7832586462425
208.0 -6.824993303321031 -118.5896154925905 -6.566081832511598 -129.4030967896907 -4.392125269198593 123.02073954270932 -10.130834543526596 -82.24603215081068
 -6.566081832511598 -129.4030967896907 -8.048621933598486 -132.0505405570458 -9.378912704570844 -88.28920823397245 -4.104778425599421 116.87650142813224
 -4.392125269198593 123.02073954270932 -9.378912704570844 -88.28920823397245 -7.623176752298817 -137.18149584790368 -6.296791177308407 -132.93425694363742
 -10.1308345435266 -82.24603215081066 -4.104778425599421 116.87650142813224 -6.296791177308407 -132.93425694363742 -7.881665911961344 -134.48624283092406
209.6 -6.6453015902197174 -119.99505193246415 -6.671229756009383 -130.19508970417365 -4.462234557027384 121.13354220982635 -9.968412736085382 -83.59940164620365
 -6.6712297560093825 -130.19508970417365 -7.814266762200868 -133.77325739865046 -9.233008946873026 -89.79880746755568 -4.171632899798494 114.8621247489401
 -4.462234557026382 121.13354220982635 -9.233008946872967 -89.79880746755578 -7.42629047690502 -138.7640262542402 -6.387044103992656 -133.79658456811188
 -9.968412736085378 -83.59940164620365 -4.171632899798494 114.8621247489401 -6.387044103992663 -133.79658456811205 -7.662660657726876 -136.15168791072642
211.2 -6.477615817916956 -121.37063444238348 -6.773529868376831 -130.94494524554318 -4.532692987412835 119.26597872115681 -9.816836661458833 -84.95936017869317
 -6.773529868376832 -130.94494524554315 -7.5959217603679505 -135.4570618853865 -9.097181064068794 -91.30821645492213 -4.2393434686551075 112.86794537699909
 -4.532692987412836 119.26597872115681 -9.097181064068794 -91.30821645492213 -7.242682320673839 -140.3128937080215 -6.4743471706091835 -134.62249299877496
 -9.816836661458833 -84.95936017869317 -4.2393434686551075 112.86794537699909 -6.4743471706091835 -134.62249299877496 -7.458586167382432 -137.78086204739648
212.8 -6.321212577606538 -122.71699102541875 -6.87257831164888 -131.65497956951077 -4.60334553520788 117.41792855338923 -9.675286994278878 -86.3221950915808
 -6.872578311648878 -131.65497956951077 -7.3925000595312955 -137.10327627684617 -8.970672702750536 -92.81456934678154 -4.307730445882917 110.89398342718921
 -4.603345535207878 117.41792855338922 -8.970672702750536 -92.81456934678154 -7.071510538216286 -141.82907196315543 -6.558371009091653 -135.41442780868638
 -9.675286994278878 -86.3221950915808 -4.307730445882917 110.89398342718921 -6.558371009091653 -135.41442780868638 -7.268456373070748 -139.3748746645547
214.4 -6.175422463260302 -124.03470403389221 -6.968011765621514 -132.32767214885277 -4.674040719042515 115.58920245534725 -9.542992821705512 -87.68482988025276
 -6.968011765621517 -132.32767214885274 -7.203009092635126 -138.7130695281721 -8.85277262065368 -94.31550976685678 -4.376617762770854 108.94017118186605
 -4.674040719042513 115.58920245534725 -8.85277262065368 -94.31550976685678 -6.912001398286182 -143.31343519028388 -6.638828648847831 -136.1749412868373
 -9.542992821705516 -87.68482988025276 -4.376617762770854 108.94017118186605 -6.638828648847831 -136.1749412868373 -7.091368388233046 -140.93471418508958
216.0 -6.039624845806179 -125.32432377439798 -7.059508714661563 -132.96563432223908 -4.744631523339569 113.77954656196093 -9.419230932641565 -89.0447356069891
 -7.059508714661566 -132.96563432223908 -7.026539745379543 -140.28749327886163 -8.742813643051688 -95.80912271762773 -4.445834119513324 107.00635865758144
 -4.744631523339569 113.77954656196093 -8.742813643051688 -95.80912271762773 -6.76344189953965 -144.76678059081274 -6.715475597308362 -136.90666015965658
 -9.419230932641566 -89.0447356069891 -4.445834119513324 107.00635865758144 -6.715475597308362 -136.90666015965658 -6.926493214311257 -142.46127682013253
217.6 -5.9132434272051215 -126.58637855587182 -7.146790114476678 -133.5715777981559 -4.814976191956674 111.98864704834412 -9.303324603543675 -90.3998548371759
 -7.146790114476678 -133.5715777981559 -6.862257251437793 -141.82750910957276 -8.640171324609408 -97.29387545501851 -4.5152139671272655 105.09231972416201
 -4.814976191956674 111.98864704834412 -8.640171324609408 -97.29387545501851 -6.625173609463831 -146.18984569832395 -6.788109323550524 -137.6122545144314
 -9.303324603544677 -90.3998548371759 -4.515213967127277 105.09231972416214 -6.78810932355054 -137.6122545144316 -6.773067918631233 -143.95538835787082
219.2 -5.795742418412591 -127.82138188822924 -7.229619475482134 -134.14828366449404 -4.884938892515132 110.21613515760599 -9.194642041934134 -91.748536118344
 -7.229619475482137 -134.14828366449402 -6.7093934803365585 -143.33400902410736 -8.544262407563002 -98.76856600209733 -4.584598323072378 103.19775858074097
 -4.884938892515132 110.21613515760599 -8.544262407563002 -98.76856600209733 -6.496587405351269 -147.583321458017 -6.856568195955725 -138.29440843967257
 -9.194642041934134 -91.748536118344 -4.584598323072378 103.19775858074097 -6.856568195955725 -138.29440843967257 -6.630388988914238 -145.41782047950161
220.8 -5.686623218081651 -129.02983741536897 -7.30780239230152 -134.6985724189753 -4.954390254493521 108.46159245062472 -9.09259460408152 -93.0894773815253
 -7.307802392301522 -134.6985724189753 -6.5672403436264934 -144.8078306745935 -8.454543143809323 -100.23227820861796 -4.653835427756987 101.32231641304932
 -4.95439025449352 108.46159245062472 -8.454543143809325 -100.23227820861796 -6.377118942669627 -148.94786195666674 -6.920729935550403 -138.95579282009484
 -9.092594604081519 -93.0894773815253 -4.653835427756987 101.32231641304932 -6.92072993554995 -138.95579281999665 -6.497806633611538 -146.8493027963031
222.4 -5.585421494961464 -130.21224206563912 -7.381185560409933 -135.22527548845667 -5.023207787270931 106.72455614904332 -8.99663487178893 -94.42167693235668
 -7.381185560409932 -135.2252754884567 -6.43514410456771 -146.2497685169523 -8.37050753189132 -101.68434245240597 -4.7227812521589545 99.46557808581161
 -5.023207787270932 106.72455614904332 -8.37050753189132 -101.68434245240597 -6.266244712716342 -150.28409151113755 -6.980509654564515 -139.59904063277648
 -8.99663487178893 -94.42167693235668 -4.7227812521589545 99.46557808581161 -6.980509654564515 -139.59904063277648 -6.374719846938813 -148.2505315578407
224.0 -5.491704597737275 -131.3690878162028 -7.449655330807881 -135.73120864563913 -5.0912761865758815 105.00452445771087 -8.906254650688883 -95.74439093023912
 -7.4496553308078814 -135.73120864563916 -6.312500422718566 -147.6605818256375 -8.291685507835432 -103.12430122916322 -4.791299868867929 97.62707874367491
 -5.0912761865758815 105.00452445771087 -8.291685507835432 -103.12430122916322 -6.16347858048507 -151.592609684049 -7.035857554618441 -140.2267250001542
 -8.906254650688881 -95.74439093023912 -4.791299868867929 97.62707874367491 -7.035857554618441 -140.2267250001542 -6.260572096198304 -149.6221757808862
225.6 -5.405069232479656 -132.50086239812032 -7.513135861341952 -136.21914765980142 -5.158487539291951 103.30096177848857 -8.82098293617995 -97.05709644000143
 -7.51313586134195 -136.21914765980142 -6.198750000825842 -149.04100030000478 -8.21764111989686 -104.55187899666912 -4.859263700098378 95.80631022466847
 -5.158487539291951 103.30096177848857 -8.217641119897815 -104.55187899666926 -6.068368716408999 -152.8739946880047 -7.086756360944523 -140.84134015692436
 -8.820982936179956 -97.05709644000143 -4.859263700098378 95.80631022466847 -7.086756360944523 -140.84134015692436 -6.154847519226323 -150.96488139555044
227.2 -5.325139360826544 -133.60804920780728 -7.571586928877041 -136.69180644287567 -5.22474143740104 101.61330374042433 -8.740383881282037 -98.35945928957567
 -7.571586928877041 -136.69180644287567 -6.093374729297589 -150.39172783800487 -8.147970710595834 -105.96695573733638 -4.926553656776021 94.00272720648582
 -5.2247414374010415 101.61330374042434 -8.147970710595834 -105.96695573733638 -5.980494853703805 -154.12880555108643 -7.133218568282622 -141.44528540480692
 -8.74038388128204 -98.35945928957567 -4.926553656776021 94.00272720648582 -7.133218568282622 -141.44528540480692 -6.057067543396334 -152.27927388393556
228.8 -5.251564282222672 -134.69112664153874 -7.625001469672456 -137.15181787557123 -5.289945012213455 99.94096199362875 -8.66405479187046 -99.65130608607127
 -7.625001469672456 -137.15181787557123 -5.995894245362155 -151.71344492918627 -8.08230112428289 -107.36954377938953 -4.993059182816501 92.21575303042565
 -5.289945012213456 99.94096199362875 -8.08230112428385 -107.36954377938967 -5.899465817144249 -155.35758334298438 -7.175283570932941 -142.0408520375698
 -8.664054791870457 -99.65130608607127 -4.993059182816501 92.21575303042565 -7.175283570932941 -142.0408520375698 -5.966787856059238 -153.56595978484154
230.4 -5.184016871435934 -135.75056702479776 -7.67340291622231 -137.6017174142842 -5.35401289989331 98.28332872635583 -8.591624168168305 -100.93259984478418
 -7.673402916222311 -137.6017174142842 -5.90586284096111 -153.00681002399187 -8.020287954409904 -108.75976748126394 -5.0586782183191055 90.4447851630754
 -5.35401289989331 98.28332872635583 -8.020287954409904 -108.75976748126394 -5.824917280251107 -156.56085170182376 -7.213014744256134 -142.63021315341038
 -8.59162416816831 -100.93259984478418 -5.0586782183191055 90.4447851630754 -7.213014744256134 -142.63021315341038 -5.883595670692246 -154.82552736374564
232.0 -5.122191948762867 -136.78683527623966 -7.71684239749211 -138.04392950866918 -5.41686714890111 96.63978087997081 -8.522749806318108 -102.20341876076918
 -7.716842397492111 -138.04392950866918 -5.822866666621022 -154.27246015638696 -7.961613841408036 -110.1378454375758 -5.1233170946170326 88.68920027212702
 -5.4168671489011055 96.63978087997081 -7.961613841408035 -110.1378454375758 -5.756509716548547 -157.7391168535272 -7.24649653816654 -143.215416204144
 -8.52274980631811 -102.20341876076918 -5.1233170946170326 88.68920027212702 -7.24649653816654 -143.215416204144 -5.807107244235167 -156.05854667992782
233.6 -5.065804765080729 -137.80038741237192 -7.755395866238519 -138.48075678883123 -5.4784370793315205 95.0096840472788 -8.457116969949519 -103.46393772243123
 -7.755395866238519 -138.48075678883123 -5.746521188895585 -155.51101103748596 -7.905986829453717 -111.50407490526551 -5.186890373250904 86.94835890491618
 -5.478437079331519 95.0096840472788 -7.905986829453717 -111.50407490526551 -5.693926517370286 -158.892867275476 -7.275831635321287 -143.79837808295667
 -8.457116969949517 -103.46393772243123 -5.186890373250904 86.94835890491618 -7.275831635321287 -143.79837808295667 -5.7369656098489745 -157.26556923375804
235.2 -5.014589587547783 -138.79166897957614 -7.789161212183043 -138.91437191734843 -5.538659103310043 93.39239604952157 -8.394436638615046 -104.71441221984844
 -7.789161212183043 -138.91437191734846 -5.676468866971306 -156.7230567876932 -7.853138788156303 -112.85881818997372 -5.249320639805083 85.221609768945
 -5.5386591033100405 93.39239604952157 -7.853138788156303 -112.85881818997372 -5.636872253955723 -160.0225731241685 -7.301138218259943 -144.3808825186506
 -8.394436638615046 -104.71441221984844 -5.249320639805083 85.221609768945 -7.301138218259943 -144.3808825186506 -5.672838496140318 -158.44712733726658
236.8 -4.968298374538471 -139.7611134751726 -7.818255413682392 -139.34681195513872 -5.59747651476339 91.78727019478131 -8.33444383755639 -105.95516434623872
 -7.818255413682391 -139.34681195513872 -5.612377020302951 -157.90916943664604 -7.802823903398287 -114.20249075926878 -5.310538262439035 83.50829362166668
 -5.59747651476339 91.78727019478131 -7.802823903398287 -114.20249075926878 -5.585071065767069 -161.12868551956808 -7.3225473810847514 -144.9645795161646
 -8.33444383755639 -105.95516434623872 -5.310538262439035 83.50829362166668 -7.3225473810847514 -144.9645795161646 -5.614416409201448 -159.6037333159465
238.4 -4.92669953050895 -140.7091408068236 -7.842811773459415 -139.7799750435649 -5.654839255923415 90.19365822663514 -8.276896051331416 -107.18657063166488
 -7.842811773459415 -139.7799750435649 -5.553935864093141 -159.069898288937 -7.754817240007216 -115.53555087952644 -5.370481123766291 81.80774678330968
 -5.654839255923415 90.19365822663514 -7.754817240007216 -115.53555087952644 -5.5382651601051585 -162.2116357580369 -7.340200712788015 -145.5509865730821
 -8.276896051331416 -107.18657063166488 -5.370481123766291 81.80774678330968 -7.340200712788015 -145.5509865730821 -5.56141085796956 -160.73587862531718
240.0 -4.88957673309192 -141.63615582532836 -7.862977276430174 -140.2156191801165 -5.710703667019171 88.61091297648348 -8.221571722300174 -108.40905147961651
 -7.862977276430177 -140.2156191801165 -5.500856693245696 -160.2057692305975 -7.70891337766713 -116.85849059543433 -5.429094333644109 80.11930429116266
 -5.710703667019171 88.61091297648348 -7.70891337766713 -116.85849059543433 -5.496213410645532 -163.27183450986522 -7.3542480713058005 -146.14149140038617
 -8.221571722300173 -108.40905147961651 -5.429094333644109 80.11930429116266 -7.3542480713058005 -146.14149140038617 -5.513552706628962 -161.84403294604616
