! Created with skrf 2.0.1 (http://scikit-rf.org).
# GHz S DB R 50.0 
!freq dBS11 angS11 dBS21 angS21 dBS12 angS12 dBS22 angS22
80.0 -0.20531273929849397 -122.79819693058548 -56.03369439310314 -32.948957743746405 -56.03369439311315 -32.9489577437364 -0.21008382668535416 -125.28393382272507
81.6 -0.21215061907681448 -124.46052910295097 -56.02332299341274 -34.67544641338059 -56.02332299342275 -34.6754464134106 -0.2170797439721206 -127.03503775958582
83.2 -0.21913727402482835 -126.10611325224595 -56.00774832210766 -36.39666595168936 -56.00774832210766 -36.39666595174936 -0.2242200371836572 -128.76969964966307
84.8 -0.22628568272911712 -127.73619565143443 -55.985771113172326 -38.115680409812626 -55.985771113172326 -38.115680409792624 -0.2315171871364184 -130.48911436818327
86.4 -0.23361017558899078 -129.3520445786241 -55.956078486412515 -39.835814068744895 -55.95607848640252 -39.83581406877489 -0.23898500695604782 -132.19450041694054
88.0 -0.24112657838096613 -130.95495369231574 -55.917228895280346 -41.56067741323833 -55.917228895280346 -41.56067741317832 -0.24663877959829605 -133.88710308012952
89.6 -0.24885238086009817 -132.54624600576267 -55.86763604574749 -43.29419282461641 -55.867636045737484 -43.29419282463641 -0.2544954196783168 -135.5681981630874
91.2 -0.2568069349954112 -134.12727852383782 -55.805551883504236 -45.040618795557684 -55.80555188350423 -45.04061879566766 -0.26257366400479504 -137.23909637664812
92.8 -0.2650116884926037 -135.699447623533 -55.72904882499432 -46.80457111387096 -55.72904882496431 -46.804571113850955 -0.2708942963157766 -138.9011484454114
94.4 -0.27349046061098853 -137.26419527866562 -55.636001506805044 -48.59103904823855 -55.63600150679504 -48.59103904828856 -0.27948041294722736 -140.55575103603323
96.0 -0.28226976900649753 -138.82301625108227 -55.524068450643504 -50.40539418244462 -55.5240684506235 -50.405394182274605 -0.2883577379094102 -142.20435362824304
97.6 -0.29137921856458954 -140.37746640437877 -55.39067418538898 -52.253389187637104 -55.39067418537897 -52.25338918752708 -0.29755499790683343 -143.84846647349812
99.2 -0.3008519660821116 -141.92917232799678 -55.232992531599464 -54.14114362781199 -55.232992531589474 -54.141143627751994 -0.3071043707427719 -145.489669828087
100.8 -0.3107252784570559 -143.4798425081085 -55.04793192666702 -56.07511394860622 -55.04793192664701 -56.07511394852624 -0.31704202414214616 -147.12962468620069
102.4 -0.32104120706806694 -145.03128034066884 -54.83212383482878 -58.06204529463348 -54.83212383481878 -58.062045294693476 -0.3274087669138067 -148.77008529829624
104.0 -0.33184740773881427 -146.58539935255692 -54.58191541626243 -60.10890390726582 -54.58191541625246 -60.10890390722581 -0.33825084089333013 -150.41291383068796
105.6 -0.3431981447337145 -148.14424109636965 -54.29336768364798 -62.22279076502475 -54.29336768361799 -62.22279076482475 -0.3496208907792841 -152.06009761211624
107.2 -0.35515552958782326 -149.70999630637832 -53.96226030013384 -64.41084008081927 -53.962260300113854 -64.41084008073925 -0.36157916106409127 -153.71376953746596
108.8 -0.3677910626182299 -151.28503006575545 -53.58410389640091 -66.68011024765407 -53.58410389639091 -66.68011024762406 -0.3741949855821067 -155.37623235223822
110.4 -0.3811875687994922 -152.87191195276296 -53.15416024423414 -69.03747988140408 -53.154160244274145 -69.03747988141407 -0.3875486584357963 -157.04998775232553
112.0 -0.3954416534378797 -154.47345242294963 -52.667469745013236 -71.48956738204596 -52.667469745043235 -71.48956738213597 -0.401733807595509 -158.73777151241086
113.6 -0.4106668515988779 -156.09274707391796 -52.11888444325375 -74.04269837927991 -52.11888444325375 -74.04269837937991 -0.4168604395011824 -160.4425962342155
115.2 -0.4269977160689051 -157.73323097765515 -51.503103172260495 -76.70295085185147 -51.5031031722705 -76.70295085170147 -0.4330588915371918 -162.167803825074
116.8 -0.4445951937816949 -159.39874600699125 -50.814703568287676 -79.4763117536702 -50.81470356827768 -79.4763117535802 -0.4504850310372979 -163.91713053114694
118.4 -0.46365379960752023 -161.0936251190042 -50.04816372069484 -82.3689811955225 -50.048163720714825 -82.3689811955825 -0.46932719342766077 -165.6947883565194
120.0 -0.484411341544593 -162.8227990336786 -49.19786439125595 -85.38786088763236 -49.19786439125595 -85.38786088774236 -0.4898155894225036 -167.50556811521705
121.6 -0.5071623375520041 -164.5919328512183 -48.25806127143049 -88.54126421216311 -48.25806127143049 -88.5412642122331 -0.5122352851917235 -169.35497140452534
123.2 -0.5322768870950974 -166.40760320431013 -47.22281581073787 -91.83988934155308 -47.222815810747875 -91.8398893416331 -0.5369444624735965 -171.24938172576358
124.8 -0.5602277908522414 -168.2775309924571 -46.08587274331833 -95.298109893842 -46.08587274332834 -95.29810989377201 -0.5644006633172831 -173.19628927830124
126.4 -0.5916304647180507 -170.21089126223868 -44.84047234546579 -98.93566826392126 -44.84047234545579 -98.93566826392126 -0.5951994211550397 -175.2045902249805
128.0 -0.6273032675244715 -172.21873126982348 -43.47908531867458 -102.77991782931424 -43.47908531868459 -102.77991782931424 -0.6301326551635712 -177.28499035210916
129.6 -0.6683614321004205 -174.31454117959743 -41.99305776709603 -106.86887228094218 -41.99305776712603 -106.86887228074218 -0.6702795966232412 -179.45055592585032
131.2 -0.7163682532610666 -176.51503940624872 -40.37215360470625 -111.25551937905912 -40.37215360472625 -111.25551937895911 -0.7171531417176549 178.28252866980029
132.8 -0.7735876107631152 -178.84125233089995 -38.603985057306424 -116.01421058513964 -38.603985057326426 -116.01421058513964 -0.7729442815467114 175.89392021918104
134.4 -0.8434233877988522 178.6800344265785 -36.67333930045868 -121.25058108074187 -36.67333930047868 -121.25058108074187 -0.8409473600609413 173.3577200786278
136.0 -0.9312189028128064 176.0144797978687 -34.56147267480746 -127.11765227960802 -34.56147267481746 -127.117652279508 -0.9263334655141763 170.6407517174106
137.6 -1.0457799144000741 173.11858029556922 -32.24564909807789 -133.84302901450184 -32.245649098097886 -133.84302901450184 -1.0376228674493477 167.70103930753848
139.2 -1.20239941355765 169.94083054888608 -29.699837895199153 -141.7762454777862 -29.69983789521915 -141.7762454776862 -1.1896059490817406 164.4890053233068
140.8 -1.4289772608930544 166.4361238091149 -26.89945423613254 -151.47165442702598 -26.899454236152543 -151.47165442702598 -1.409239482558636 160.9615643871551
142.4 -1.777545772623924 162.63368545865535 -23.838924451192668 -163.8235013254741 -23.83892445121267 -163.82350132537405 -1.7466954164766508 157.14808282211618
144.0 -2.3362737158060174 158.89728663053995 -20.58596344174619 179.7899233985807 -20.585963441766197 179.78992339868068 -2.2866039328963064 153.4013540064776
145.6 -3.171090914710625 156.62523916717345 -17.409768965209878 157.76229663977315 -17.40976896522988 157.76229663987314 -3.091103504417104 151.06505468185458
147.2 -3.973753164905152 158.04081461336241 -14.879159945656157 130.12664515314063 -14.87915994567616 130.12664515314063 -3.8645829223875094 152.2526763514733
148.8 -4.103467519477449 160.66801754555058 -13.418306921918816 100.94825296073951 -13.418306921938822 100.94825296078949 -3.9981722505797412 154.60914589971827
150.4 -3.9204228299487616 159.59759633862407 -12.686349592028774 74.65418605742687 -12.686349592038777 74.65418605746689 -3.830732764156606 153.4619691730559
152.0 -4.039269633740139 155.78885735925476 -12.09794817789825 51.45512269871122 -12.097948177908249 51.455122698751225 -3.949441762015509 149.69592441265158
153.6 -4.629788024615044 151.69138394664293 -11.396906242779398 29.3043866109525 -11.396906242789399 29.304386610992506 -4.518888209744128 145.66308690686034
155.2 -5.679676215746293 149.87128698823918 -10.635649477728741 6.3045169973154085 -10.63564947773874 6.304516997368409 -5.522916087011842 143.82907664970517
156.8 -6.789840694363507 153.4428860427892 -10.039666784005137 -18.28712026578579 -10.039666784015136 -18.28712026576579 -6.575600700700183 147.10151551619543
158.4 -6.991594642803239 161.0195083463102 -9.823346011003016 -43.59251328150185 -9.823346011012015 -43.59251328148186 -6.77278277038135 154.11930439254775
160.0 -6.2393864928021046 164.70020537330637 -9.980852048027844 -67.89396235052564 -9.980852048037846 -67.89396235050565 -6.069123746284998 157.52781675857287
161.6 -5.486631202059914 162.58835790275538 -10.301278397591311 -90.29517443439478 -10.301278397601312 -90.2951744343548 -5.352191668995387 155.46040678156265
163.2 -5.162582995102757 157.51189057246 -10.569637299157307 -111.22440725846054 -10.569637299167304 -111.22440725846054 -5.037819329150929 150.5376756617064
164.8 -5.308514878956554 151.67325719280095 -10.684845033926567 -131.82696360378503 -10.684845033936565 -131.82696360378503 -5.171356946339415 144.87852375229073
166.4 -5.89805772947011 146.76371504850786 -10.677006857042128 -153.38112314919042 -10.67700685705213 -153.38112314919042 -5.726146992754648 140.12735152437108
168.0 -6.775814508785297 145.00012881615015 -10.707482303888975 -176.8373206590068 -10.707482303898978 -176.8373206590068 -6.547238642950502 138.39068472391068
169.6 -7.335821877553187 147.76489503105913 -11.03280873550942 157.84578673458026 -11.032808735519417 157.84578673458026 -7.0597550021040645 140.91008433706565
171.2 -6.93482670148564 150.5442527534596 -11.847289843143791 132.13664299410817 -11.847289843163793 132.13664299410817 -6.667426858400002 143.44592240089187
172.8 -6.067505657756667 147.77393033838104 -13.107141969395714 108.00122073073845 -13.107141969405713 108.00122073073845 -5.827195308527533 140.79729761026664
174.4 -5.418972725873213 140.23471383496792 -14.595184466980971 86.4062331801605 -14.59518446700097 86.4062331801705 -5.184374239394927 133.64063723653888
176.0 -5.131103623532562 130.1644743149339 -16.114285589190324 67.15691424957038 -16.11428558920032 67.15691424958035 -4.88043708441755 124.09739264987407
177.6 -5.130974273591877 118.59057711638295 -17.564272824298648 49.5964652632588 -17.56427282431865 49.59646526325881 -4.849836125036475 113.17843420109739
179.2 -5.32935074916235 105.71209181780512 -18.92099153804643 33.08853253463347 -18.92099153806643 33.08853253460347 -5.010889017835601 101.1046805642121
180.8 -5.648745641431532 91.40551208716684 -20.2017414210598 17.16649503405019 -20.20174142107981 17.166495034020194 -5.296183528878425 87.77615220162555
182.4 -6.009420394067696 75.50354874468178 -21.442780237125515 1.5427060092025455 -21.442780237145513 1.5427060091912057 -5.641275604703553 73.01887970520879
184.0 -6.316847814014556 58.00231691611313 -22.686623989837674 -13.915249791910679 -22.68662398986767 -13.915249791910687 -5.9712598505902115 56.747409285218744
185.6 -6.469093483779038 39.25611018595746 -23.974153721712767 -29.212048323045735 -23.97415372173277 -29.21204832303573 -6.199020214597036 39.12362065719277
187.2 -6.3919139437109775 20.050970396558927 -25.339027036895764 -44.25440048763704 -25.339027036925756 -44.25440048773703 -6.2446287847398265 20.674447301039574
188.8 -6.078518414072742 1.3964735860303716 -26.80393251434092 -58.885765168642344 -26.80393251435092 -58.885765168682354 -6.070314929368484 2.2359921021477667
190.4 -5.590522848136159 -15.867292643773848 -28.379082871249675 -72.92460540445782 -28.37908287128968 -72.92460540434782 -5.70073140818736 -15.322153946758359
192.0 -5.017072686311327 -31.310398412297786 -30.063171164412353 -86.20015463710078 -30.06317116446236 -86.20015463713078 -5.20524019737505 -31.394263056795534
193.6 -4.433978794988681 -44.872783304418036 -31.846310953058588 -98.57863528393808 -31.84631095310859 -98.57863528386808 -4.660313376537572 -45.73377362509496
195.2 -3.888371408573612 -56.70154440842386 -33.71390389913852 -109.97604948606721 -33.71390389922852 -109.97604948596721 -4.1237697324802856 -58.362624130567106
196.8 -3.402202735302108 -67.01766712858169 -35.650328362069004 -120.35844305072878 -35.650328362099 -120.35844305062878 -3.6290896732980986 -69.43825191956843
198.4 -2.9811834817730904 -76.04609380026871 -37.641747292367704 -129.7338565186414 -37.64174729242771 -129.7338565186414 -3.190658074174009 -79.1607800994564
200.0 -2.6223909554686395 -83.9886379110907 -39.67785552929483 -138.1408605419981 -39.67785552943483 -138.14086054209812 -2.8110499800212354 -87.72678329352193
201.6 -2.3191485816125548 -91.0173743809217 -41.75275776640827 -145.63740559920325 -41.75275776641827 -145.6374055995032 -2.4866959637151838 -95.31168131049368
203.2 -2.0637207339280463 -97.27596299866032 -43.86532429111213 -152.29204706785328 -43.865324291152135 -152.29204706745324 -2.2114313721509977 -102.06566845545657
204.8 -1.8486324059092585 -102.88339042608716 -46.01938301722738 -158.17833079285793 -46.01938301724737 -158.1783307924579 -1.9784505914582309 -108.11501779451724
206.4 -1.6672202222278723 -107.93802422282928 -48.224074124558584 -163.37253230166004 -48.22407412467858 -163.37253230176 -1.7812663114612637 -113.56510174265571
208.0 -1.5137885522550314 -112.52127796801045 -50.494699226017225 -167.95502982718313 -50.494699226097225 -167.95502982658317 -1.6141089307115601 -118.50366321799451
209.6 -1.3835801390048243 -116.70071630387876 -52.85451138273711 -172.01642487653228 -52.854511382767114 -172.01642487713224 -1.4720347935203224 -123.0038127354017
211.2 -1.272671361906639 -120.53261348895859 -55.338226030378365 -175.67167009207725 -55.33822603025837 -175.6716700917773 -1.3508957067963068 -127.12660398777383
212.8 -1.1778467080017703 -124.0640349981624 -57.99884701722617 -179.09101319255188 -57.99884701716617 -179.0910131942519 -1.2472512546247312 -130.92318344626406
214.4 -1.096477460222908 -127.33452133862353 -60.92139237367807 177.42701234174788 -60.921392373768064 177.42701234244785 -1.1582650928176728 -134.4365587196616
216.0 -1.0264145291029196 -130.3774471535211 -64.25212315135158 173.25741298542508 -64.25212315213157 173.25741298542508 -1.0816045186979248 -137.70304281754485
217.6 -0.9658980318962791 -133.22111816467532 -68.26281089113658 166.7876854965244 -68.26281089081658 166.7876854945244 -1.0153512087020058 -140.75342983349867
219.2 -0.9134829269201604 -135.88965765748816 -73.43440677438083 152.50957849703636 -73.43440677528083 152.50957849843635 -0.9579253479459675 -143.61395109890148
220.8 -0.8679787338618585 -138.40372446483008 -78.84304150682306 109.23400884252166 -78.84304150873305 109.23400884472169 -0.9080227484498606 -146.3070532636553
222.4 -0.8284010607433347 -140.78109614442457 -76.58833136158324 54.599945769181275 -76.58833136218325 54.59994577368128 -0.8645634867977905 -148.85203251210734
224.0 -0.7939327767445842 -143.03714423964863 -72.62037025892711 36.51740623024691 -72.62037025806711 36.517406226896895 -0.8266502950908085 -151.2655527538987
225.6 -0.7638929502805186 -145.18522302469523 -69.9025995492433 30.96563858783147 -69.9025995487333 30.965638584991463 -0.7935349953843263 -153.56207026105574
227.2 -0.7377119869337269 -147.2369887327755 -67.9371085174832 29.51562025796605 -67.9371085178932 29.51562025682605 -0.7645914665862069 -155.7541828039327
228.8 -0.7149116968788476 -149.20266277986354 -66.38684925963663 29.84150075686746 -66.38684925971664 29.841500756217457 -0.7392938700686725 -157.8529177505779
230.4 -0.6950892760976758 -151.0912497289593 -65.07425244955817 31.042198680071905 -65.07425244972818 31.042198680111884 -0.7171990890884496 -159.86797071527627
232.0 -0.6779043963050333 -152.91071856129025 -63.90204812212787 32.66660847548986 -63.90204812223787 32.66660847425986 -0.6979325388613078 -161.8079040356595
233.6 -0.6630687684312917 -154.66815409605093 -62.8154426039187 34.45014972586999 -62.81544260403871 34.450149726 -0.6811766736126355 -163.68031252251043
235.2 -0.6503376796559426 -156.36988404067213 -61.783567878211365 36.22622570051138 -61.783567878231366 36.226225699851376 -0.6666616556906374 -165.4919624622446
236.8 -0.6395031105075963 -158.02158607917423 -60.789408468650805 37.889688762928984 -60.7894084686808 37.88968876307898 -0.6541577638039966 -167.24890868776563
238.4 -0.6303881221361496 -159.62837855211197 -59.82389810795274 39.37768560071249 -59.82389810795274 39.37768560057248 -0.6434692066143648 -168.95659359944764
240.0 -0.6228422692745732 -161.1948976080511 -58.88235090698906 40.65713724238989 -58.88235090713906 40.65713724326988 -0.6344290786535012 -170.61993126837044
