! Created with skrf 2.0.1 (http://scikit-rf.org).
# GHz S DB R 50.0 
!freq dBS11 angS11 dBS12 angS12 dBS13 angS13
! dBS14 angS14
! dBS21 angS21 dBS22 angS22 dBS23 angS23
! dBS24 angS24
! dBS31 angS31 dBS32 angS32 dBS33 angS33
! dBS34 angS34
! dBS41 angS41 dBS42 angS42 dBS43 angS43
! dBS44 angS44
!
80.0 -5.291479916735399 164.89721700755692 -7.453480955897406 -46.20239108157711 -5.6969377890864035 -76.97681872580712 -7.426930149911404 -59.61163087195712
 -7.453480955897406 -46.20239108157711 -5.117672750941162 158.2389532632193 -7.5808223519626825 -62.411007841712724 -5.779854887867582 -79.91019384675593
 -5.6969377890864035 -76.97681872580712 -7.5808223519626825 -62.411007841712724 -5.106792107334161 157.52193701342685 -7.626613986987369 -48.635114965543984
 -7.426930149911406 -59.61163087195712 -5.779854887867582 -79.91019384675593 -7.626613986987369 -48.635114965543984 -5.11243116419706 157.95138445319355
81.6 -5.3084412805796894 164.08908319575013 -7.478936574000292 -46.802664631761594 -5.655314128676294 -78.50289160963159 -7.466048605638291 -60.75662733927158
 -7.478936574000292 -46.802664631761594 -5.12656930558963 157.3101331750479 -7.626610110200129 -63.59580312745405 -5.741550056348292 -81.48206833152284
 -5.655314128676293 -78.50289160963159 -7.626610110200129 -63.59580312745405 -5.117519530249432 156.55493870266878 -7.657786373118709 -49.24627783626786
 -7.466048605638294 -60.75662733927158 -5.74155005634729 -81.4820683315228 -7.657786373118709 -49.24627783626786 -5.1219227114423145 157.0081289456505
83.2 -5.329201937120921 163.25918857675182 -7.502453509679258 -47.3879568524315 -5.6118477126542565 -80.0356216019915 -7.505625691771258 -61.906482547211496
 -7.502453509679258 -47.387956852431486 -5.1388417772173725 156.36120481600338 -7.673038704511862 -64.78426863274558 -5.701453882314319 -83.05959549521783
 -5.6118477126542565 -80.0356216019915 -7.673038704511862 -64.78426863274558 -5.13184385988684 155.56617553991788 -7.686926273754542 -49.83971908343899
 -7.505625691771256 -61.906482547211496 -5.701453882314319 -83.05959549521783 -7.686926273754542 -49.83971908343899 -5.1348688453721705 156.04415259873525
84.8 -5.353931511487265 162.4071704604222 -7.523861431762718 -47.958458096365995 -5.566538573968716 -81.57569800934598 -7.545731879283714 -63.06187385171599
 -7.523861431762715 -47.95845809636601 -5.154625574244903 155.3919102742857 -7.720183635433039 -65.97702816395967 -5.659563259585512 -84.64341779388587
 -5.566538573968717 -81.57569800934598 -7.720183635433039 -65.97702816395967 -5.1499186365196215 154.55530268225652 -7.713835452235011 -50.41557034014163
 -7.545731879283717 -63.06187385171599 -5.659563259585512 -84.64341779388587 -7.713835452235011 -50.41557034014163 -5.151411707146228 155.05916500820223
86.4 -5.382811328304859 161.53262688629692 -7.542982487271395 -48.51442263563746 -5.519391723454394 -83.12382988037747 -7.586448416028393 -64.22349500502747
 -7.542982487271395 -48.51442263563745 -5.174064760233637 154.4019580068144 -7.768131618213109 -67.17471854118376 -5.615879637754305 -86.23419564995892
 -5.519391723454394 -83.12382988037747 -7.768131618213109 -67.17471854118376 -5.1719078610144775 153.5219361443056 -7.7383059721358 -50.97403817029076
 -7.586448416028393 -64.22349500502747 -5.615879637754305 -86.23419564995892 -7.7383059721358 -50.97403817029076 -5.171702778505839 154.05284012071078
88.0 -5.416035696437134 160.6351163803238 -7.559631333073177 -49.05617748628747 -5.470417489811178 -84.68074535921748 -7.627868183485177 -65.39205422260747
 -7.559631333073176 -49.05617748628745 -5.197313020957056 153.39102307435985 -7.816981486940394 -68.37798728409564 -5.570409319450038 -87.83260681376625
 -5.470417489811177 -84.68074535921748 -7.816981486940394 -68.37798728409564 -5.197987152828741 152.46565275369667 -7.76012024083549 -51.515415140157394
 -7.6278681834851785 -65.39205422260747 -5.570409319450038 -87.83260681376625 -7.76012024083549 -51.515415140157394 -5.1959039220673215 153.02481637897145
89.6 -5.453813282950928 159.71415778995797 -7.573615307456509 -49.584132039111175 -5.419631881184509 -86.24719088760119 -7.6700966228755085 -66.56827184546118
 -7.573615307456509 -49.584132039111196 -5.224534681559127 152.35874749257516 -7.866845173241774 -69.58748983519548 -5.523163775647172 -89.43934559191106
 -5.419631881184509 -86.24719088760119 -7.866845173241774 -69.58748983519548 -5.2283449794022685 151.385990206077 -7.779051236778742 -52.040091881558986
 -7.67009662287551 -66.56827184546118 -5.523163775647172 -89.43934559191106 -7.779051236778742 -52.040091881558986 -5.224188479910653 151.97469698237848
91.2 -5.496368587420929 158.7692301961581 -7.584734770338092 -50.0987884626013 -5.367056968707091 -87.8239302273813 -7.713252735115094 -67.75287752757131
 -7.584734770338093 -50.098788462601306 -5.255905779734861 151.3047407028516 -7.917848764486055 -70.80388624039028 -5.474159979269789 -91.0551219178964
 -5.367056968707093 -87.8239302273813 -7.917848764486055 -70.80388624039028 -5.2631839655135915 150.28244722473636 -7.794862957773678 -52.54857008807636
 -7.713252735115096 -67.75287752757131 -5.474159979269789 -91.0551219178964 -7.794862957773678 -52.54857008807636 -5.25674243748245 150.902050262691
92.8 -5.543943528886695 157.79977290132643 -7.592783643157325 -50.600752813669985 -5.312721291961326 -89.41174327186998 -7.757470158924327 -68.94660686782998
 -7.592783643157328 -50.60075281366998 -5.291615201279 150.22858016774822 -7.970133646339198 -72.02783719542502 -5.423420756992349 -92.6806602378213
 -5.312721291961329 -89.41174327186998 -7.970133646339198 -72.02783719542502 -5.302722291897263 149.15448382645786 -7.807311130325751 -53.04147634217404
 -7.757470158924329 -68.94660686782998 -5.423420756992349 -92.6806602378213 -7.807311130325751 -53.04147634217404 -5.293765660338089 149.80641018552416
94.4 -5.596799159224821 156.80518548748822 -7.597550181494681 -51.0907467550183 -5.256660285770682 -91.01142461119831 -7.80289833121768 -70.1501973953383
 -7.597550181494686 -51.09074675501829 -5.331865884751508 149.12981209830969 -8.023857734350317 -73.25999935401254 -5.370975158790488 -94.31669818113848
 -5.256660285770682 -91.0114246111983 -8.023857734350317 -73.25999935401254 -5.34719519326972 148.0015216980656 -7.8161442218567085 -53.51957661935641
 -7.8028983312176825 -70.1501973953383 -5.370975158789482 -94.3166981811384 -7.8161442218567085 -53.51957661935641 -5.335473211898729 148.6872769808035
96.0 -5.655217518281452 155.78482794165973 -7.5988180145952136 -51.569619734282696 -5.198916727138213 -92.62378181362271 -7.849703733527215 -71.36438380411269
 -7.5988180145952136 -51.56961973428268 -5.376876102439072 148.00795231794942 -8.079196799058288 -74.50101977856583 -5.316858844281519 -95.96398498248432
 -5.198916727138213 -92.62378181362271 -8.079196799058288 -74.50101977856583 -5.3968565669451865 146.82294468502633 -7.821104798202175 -53.983791255851685
 -7.849703733527211 -71.3643838041127 -5.316858844281519 -95.96398498248432 -7.821104798202175 -53.983791255851685 -5.382096760854241 147.54411791212965
97.6 -5.719503648139845 154.73802083485572 -7.596367486206017 -52.0383614307921 -5.139541200329019 -94.24963338184209 -7.898071227741016 -72.58989231959211
 -7.596367486206017 -52.03836143079209 -5.42688082504672 146.8624872712906 -8.136345888758974 -75.75152939712353 -5.261114484204141 -97.6232796165628
 -5.1395412003290195 -94.24963338184209 -8.136345888758974 -75.75152939712353 -5.4519807043615085 145.61809939119834 -7.821931267781447 -54.43521009999087
 -7.898071227741016 -72.58989231959211 -5.261114484204141 -97.6232796165628 -7.821931267781447 -54.43521009999087 -5.433886087344629 146.37636819255823
99.2 -5.789987786166744 153.6640455398929 -7.589977329981723 -52.498114219564 -5.07859257725872 -95.889806340034 -7.948205483690719 -73.82743406380399
 -7.589977329981719 -52.49811421956401 -5.482133177811434 145.69287517773373 -8.195520853469864 -77.0121353094603 -5.203792174250771 -99.29534860345007
 -5.07859257725872 -95.889806340034 -8.195520853469864 -77.0121353094603 -5.512864159311629 144.38629588625858 -7.818360050963142 -54.875107495984714
 -7.94820548369072 -73.82743406380399 -5.2037921742507685 -99.29534860345007 -7.818360050963142 -54.875107495984714 -5.491110697259353 145.18343205005056
100.8 -5.867027759368453 152.56214446016858 -7.579426709920384 -52.95018534169021 -5.016138509182384 -97.54513340501023 -8.000332500222383 -75.07769726922021
 -7.5794267099193835 -52.95018534169021 -5.542905996125853 144.49854732853288 -8.256959972530652 -78.28341176141866 -5.144949856895044 -100.98096343944252
 -5.016138509182385 -97.54513340501023 -8.256959972530634 -78.28341176141862 -5.579827768237411 143.12680851112634 -7.8101282081347385 -55.30495667222797
 -8.000332500222386 -75.07769726922021 -5.144949856895039 -100.98096343944245 -7.8101282081347385 -55.30495667222797 -5.55406155465856 143.96468393833618
102.4 -5.951011606041688 151.43152122935473 -7.5644976513895585 -53.39605840618403 -4.952255924447556 -99.21644969237404 -8.054701220139556 -76.34133817301405
 -7.5644976513895585 -53.39605840618403 -5.609493489782029 143.27890950770964 -8.32092568649182 -79.56588958178659 -5.084653745055578 -102.68089761085747
 -4.9522559244475595 -99.21644969237404 -8.32092568649182 -79.56588958178659 -5.653218839741861 141.83887676403114 -7.796976552325475 -55.726443026319856
 -8.05470122013956 -76.34133817301405 -5.084653745055578 -102.68089761085747 -7.796976552325475 -55.726443026319856 -5.623052943684713 142.71946987343335
104.0 -6.042360455007842 150.27134082601464 -7.544977880963353 -53.837403783814025 -4.887031525542353 -100.90458890907402 -8.111585238063352 -77.61897040341402
 -7.544977880963353 -53.837403783814025 -5.68221302694285 142.03334351022914 -8.387706431851901 -80.86004385117083 -5.022978740146557 -104.39592315478755
 -4.887031525542355 -100.90458890907402 -8.387706431851901 -80.86004385117083 -5.733413532648946 140.5217062364764 -7.778653260959199 -56.14147571735899
 -8.111585238063352 -77.61897040341402 -5.022978740146557 -104.39592315478755 -7.778653260959199 -56.14147571735899 -5.6984244742002454 141.44710886212968
105.6 -6.141531698143653 149.08072951789254 -7.520664083177744 -54.27608739278225 -4.820562276967744 -102.61037898095225 -8.171284598602742 -78.91115264784226
 -7.520664083177743 -54.27608739278225 -5.761407051531472 140.76120871562426 -8.457618575162558 -82.16627954747193 -4.960008836474742 -106.12680673671527
 -4.820562276967742 -102.61037898095225 -8.457618575162558 -82.16627954747193 -5.820819444733619 139.17446955004354 -7.754917985680518 -56.552196902855414
 -8.17128459860274 -78.91115264784226 -4.960008836474742 -106.12680673671527 -7.754917985680501 -56.55219690284525 -5.780543248830491 140.14689437826476
107.2 -6.2490224986602785 147.8587745254552 -7.491365569484657 -54.71417732384047 -4.7529558736296575 -104.33463707052047 -8.234127680329657 -80.21837436617047
 -7.491365569484656 -54.71417732384047 -5.847445150137611 139.46184366890938 -8.531008441262411 -83.48491488144153 -4.895837503584203 -107.87430521447946
 -4.752955873629655 -104.33463707052046 -8.531008441262408 -83.48491488144154 -5.915878438277419 137.79630721802 -7.725546439213698 -56.96098790391063
 -8.234127680329657 -80.21837436617047 -4.895837503584203 -107.87430521447946 -7.725546439213698 -56.96098790391063 -5.8698062122944625 138.8180958347099
108.8 -6.365373686264006 146.6045232445904 -7.4569083390470485 -55.153947712661 -4.684331177392046 -106.07816394023101 -8.300473158594045 -81.541039283731
 -7.456908339047046 -55.153947712661 -5.940726286587411 138.13456759973016 -8.608254428347257 -84.81616199500974 -4.8305680368296215 -109.63916065636852
 -4.6843311773920435 -106.07816394023101 -8.608254428347257 -84.81616199500974 -6.019069733842444 136.3863283242401 -7.69033541527252 -57.370471559313124
 -8.300473158594045 -81.541039283731 -4.8305680368296215 -109.63916065636852 -7.69033541527252 -57.370471559313124 -5.966642706303174 137.4599599814332
110.4 -6.49117410126151 145.3169818194856 -7.417139492933245 -55.59787924606245 -4.614818607277247 -107.84173762397243 -8.37071203718325 -82.87944636561244
 -7.417139492933243 -55.59787924606245 -6.041681224811072 136.77868178716932 -8.689769199270497 -86.16010464453574 -4.764313863990434 -111.4220947799879
 -4.614818607276245 -107.84173762397245 -8.68976919927052 -86.16010464453575 -6.130913310327001 134.9436108715885 -7.649108172797602 -57.78351003745246
 -8.370712037183246 -82.87944636561245 -4.764313863990434 -111.4220947799879 -7.649108172797588 -57.783510037452565 -6.071517256281239 136.07171213104198
112.0 -6.627065463859009 143.99511277836297 -7.37193194295738 -56.048655690066994 -4.544560466401382 -109.62610638111701 -8.44526973524738 -84.23376793806699
 -7.371931942957382 -56.048655690066994 -6.150775164756644 135.3934706294618 -8.776001933792607 -87.51667243375744 -4.697198792794265 -113.22380278628738
 -4.544560466401382 -109.62610638111701 -8.776001933792607 -87.51667243375744 -6.251973657675287 133.46720160176346 -7.601720090095341 -58.20319741754743
 -8.445269735247381 -84.23376793806699 -4.697198792794265 -113.22380278628738 -7.601720090095341 -58.20319741754743 -6.184932621226632 134.65255706196763
113.6 -6.773747863172062 142.63783135291766 -7.321189334554791 -56.50915585884922 -4.473711186349792 -111.43198091553921 -8.52460821171979 -85.60402458176921
 -7.321189334554791 -56.50915585884921 -6.268510622397435 133.97820222985033 -8.867440620491502 -88.88561109779194 -4.629357181590586 -115.04494658057754
 -4.473711186349792 -111.43198091553923 -8.867440620490473 -88.88561109779191 -6.382863939189058 131.95611501844536 -7.548064468276216 -58.63284643155401
 -8.52460821171979 -85.60402458176921 -4.629357181590586 -115.04494658057754 -7.548064468276216 -58.63284643155401 -6.307433145818497 133.20167939014848
115.2 -6.931985984117132 141.24399997778235 -7.264851080731846 -56.98244050859312 -4.402437467280846 -113.26002586512311 -8.609228104646846 -86.99005637465312
 -7.264851080731849 -56.98244050859311 -6.395430593550381 132.53212824372565 -8.964614359961216 -90.26644826681597 -4.560934013453158 -116.88614739312703
 -4.402437467279847 -113.2600258651231 -8.964614359961246 -90.26644826681598 -6.524250634337198 130.40933125715122 -7.488078338118158 -59.07596888179293
 -8.609228104646846 -86.99005637465312 -4.560934013453158 -116.88614739312703 -7.488078338117134 -59.07596888179315 -6.439608464662868 131.71824312891593
116.8 -7.10261622124865 139.8124203032218 -7.202897382532909 -57.47173374257044 -4.3309182898369105 -115.11085058433044 -8.699670857180909 -88.39149000625044
 -7.20289738253291 -57.471733742570436 -6.532122052491807 131.05448265766393 -9.068095642387933 -91.65845405178794 -4.4920848524673715 -118.7479778316168
 -4.330918289836908 -115.11085058433044 -9.068095642387933 -91.65845405178794 -6.676858751139143 128.82579233159305 -7.421748101952814 -59.536249419225136
 -8.699670857180909 -88.39149000625044 -4.4920848524673715 -118.7479778316168 -7.421748101952814 -59.536249419225136 -6.58209762233678 130.2013900692414
118.4 -7.2865548688846395 138.3418218444784 -7.135354092153912 -57.98039865448859 -4.259344773104913 -116.98499927436859 -8.796520795264911 -89.80770121860859
 -7.135354092153914 -57.98039865448859 -6.6792198508876135 129.5444790737595 -9.178502552050437 -93.06059568876097 -4.422975659862136 -120.63095342859468
 -4.259344773104913 -116.98499927436859 -9.178502552050437 -93.06059568876097 -6.8414777212286335 127.20439613598015 -7.349114824657614 -60.01751258126163
 -8.796520795264913 -89.80770121860859 -4.422975659862136 -120.63095342859468 -7.349114824657614 -60.01751258126163 -6.73559369069881 128.6502365039505
120.0 -7.484807629711732 136.83084610854115 -7.062297259384387 -58.51190711375687 -4.187919851465388 -118.88294054385685 -8.900407113896385 -91.23777194727685
 -7.062297259384389 -58.51190711375687 -6.837411101482841 128.00130595677226 -9.296500837805098 -94.47148534891976 -4.353782447032057 -122.53552377294527
 -4.187919851465388 -118.88294054385685 -9.296500837805098 -94.47148534891976 -7.01896812202593 125.54398739302746 -7.270278977321185 -60.52368323771054
 -8.900407113896387 -91.23777194727685 -4.353782447032057 -122.53552377294527 -7.270278977321185 -60.52368323771054 -6.900848987921796 127.06386767961338
121.6 -7.698480753597568 135.27802467330042 -6.983857192111679 -59.06980380414591 -4.116857742706678 -120.80505652625591 -9.012005718835674 -92.6804414357459
 -6.9838571921116746 -59.06980380414591 -7.00744015555677 126.42411915024482 -9.42280577106549 -95.88932006090171 -4.284690742556675 -124.46206335218443
 -4.1168577427066735 -120.80505652625591 -9.42280577106549 -95.88932006090171 -7.210269411658857 123.84334449152742 -7.185404435435334 -61.058740867704934
 -9.012005718835672 -92.6804414357459 -4.284690742556675 -124.46206335218443 -7.185404435435334 -61.058740867704934 -7.078681033669244 125.4413291873783
123.2 -7.928794210142613 133.68174919607856 -6.900221858474857 -59.657664858908895 -4.046383180202858 -122.75163171784888 -9.132040857977861 -94.1340504704089
 -6.900221858473859 -59.657664858908895 -7.190114315176678 124.81203078316913 -9.558183689485077 -97.31181249268052 -4.215894851415722 -126.41086226816697
 -4.046383180202863 -122.75163171784888 -9.558183689484006 -97.31181249268049 -7.4164089160550155 122.10116083695041 -7.094721541469072 -61.62666837374476
 -9.132040857976857 -94.1340504704089 -4.215894851415722 -126.41086226816697 -7.094721541469079 -61.62666837374463 -7.269979414065144 123.7816142743671
124.8 -8.17709742035004 132.0402306618143 -6.811639463159439 -60.279051678103 -3.976730383839437 -124.72284175244302 -9.261286460161438 -95.59647772443302
 -6.811639463159439 -60.279051678103 -7.3863104628088045 123.16409345151287 -9.703453093068934 -98.73611109161214 -4.147596886954261 -128.3821170311017
 -3.9767303838394414 -124.72284175244302 -9.703453093068934 -98.73611109161214 -7.638512378354703 120.31601891751014 -6.99852906010549 -62.23139641410085
 -9.26128646016144 -95.59647772443302 -4.147596886954261 -128.3821170311017 -6.99852906010549 -62.23139641410085 -7.475713781167284 122.08364577505121
126.4 -8.444888235115375 130.35144426438808 -6.718420043854096 -60.93746075634105 -3.9081417478740965 -126.71874237669105 -9.400567077292097 -97.06506699649104
 -6.7184200438540955 -60.93746075634105 -7.596982844618645 121.47927826377678 -9.859485116313627 -100.15870777078025 -4.080005560111127 -130.37592168176857
 -3.9081417478740947 -126.71874237669105 -9.859485116313627 -100.15870777078025 -7.877816473577263 118.48635473282229 -6.897194882728908 -62.87674448400219
 -9.400567077292097 -97.06506699649104 -4.080005560111127 -130.37592168176857 -6.897194882728908 -62.87674448400219 -7.696943278353964 120.34625098568033
128.0 -8.73383606585387 128.61305504814172 -6.620935956119373 -61.636270575097726 -3.8408662293313744 -128.7392589390477 -9.550758295590372 -98.53654387184773
 -6.620935956119372 -61.636270575097726 -7.823172313261515 119.75644495331197 -10.02720313983241 -101.57533094391432 -4.013334716152606 -132.39225953035222
 -3.8408662293313744 -128.7392589390477 -10.02720313983241 -101.57533094391432 -8.135683813654074 116.61040948587045 -6.791155375039506 -63.56636018169771
 -9.550758295590372 -98.53654387184773 -4.013334716152606 -132.39225953035222 -6.791155375039506 -63.56636018169771 -7.934827769942936 118.56812732518398
129.6 -9.045810366219524 126.82231763805098 -6.519621145397506 -62.378686809544554 -3.7751574281835056 -130.78417675648456 -9.712786439753504 -100.00692000408458
 -6.519621145397507 -62.378686809544554 -8.066017425731983 117.99430176477931 -10.207581220294845 -102.9808212324897 -3.9478016169269496 -134.43099584099022
 -3.7751574281835043 -130.78417675648456 -10.2075812202938 -102.98082123248972 -8.41362112932282 114.68616442017607 -6.680913305945547 -64.30365824391043
 -9.712786439753504 -100.00692000408458 -3.9478016169269496 -134.43099584099022 -6.680913305945547 -64.30365824391043 -8.190641366864364 116.7477959788626
131.2 -9.382916062759687 124.97594081858665 -6.41496914234469 -63.1676872504479 -3.7112713604886896 -132.85313276168787 -9.88762733399569 -101.47138280078791
 -6.414969142344687 -63.1676872504479 -8.326767907815714 116.19135216296979 -10.401640897092406 -104.36898659058625 -3.8836249764660042 -136.49187182108224
 -3.7112713604886896 -132.85313276168787 -10.401640897092406 -104.36898659058625 -8.713301529307117 112.71125328046416 -6.5670343448759425 -65.09176101432149
 -9.88762733399569 -101.47138280078791 -3.8836249764649997 -136.49187182108219 -6.5670343448759425 -65.09176101432149 -8.46578888868652 114.88353985858305
132.8 -9.747538079087722 123.06990394787638 -6.307529760447283 -64.00596793715158 -3.6494639379282785 -134.94560886593158 -10.076303797780275 -102.92416777243156
 -6.307529760447283 -64.00596793715157 -8.606801147017421 114.3458245208703 -10.610445761936965 -105.732432900652 -3.8210227695467074 -138.57450029138678
 -3.6494639379282785 -134.94560886593158 -10.610445761936965 -105.732432900652 -9.036592022273709 110.68284488865982 -6.450142165562203 -65.93344201431685
 -10.076303797780277 -102.92416777243157 -3.8210227695467074 -138.57450029138678 -6.450142165562203 -65.93344201431685 -8.761826097398053 112.97332102603717
134.4 -10.142397853572007 121.0992065723348 -6.197904520801357 -64.89589202844842 -3.589988181617359 -137.0609274863284 -10.279881429234354 -104.35841016712843
 -6.197904520801355 -64.89589202844842 -8.90764257139973 112.4555797194671 -10.835092930059924 -107.06236530840063 -3.7602098463965823 -140.67836341753465
 -3.5899881816173576 -137.06092748632838 -10.835092930059924 -107.06236530840064 -9.385587869103622 108.597485485518 -6.330912244322634 -66.83107421563886
 -10.279881429234354 -104.35841016712843 -3.7602098463965823 -140.67836341753465 -6.330912244322634 -66.83107421563886 -9.080484795946674 111.01467106023479
136.0 -10.57062580425438 119.0575240272611 -6.0867408756036925 -65.83944290106244 -3.5330912142036937 -139.19824968199245 -10.499462047828692 -105.76597174619245
 -6.086740875603692 -65.83944290106244 -9.23099102759819 110.51798986972744 -11.076700196087977 -108.34835472976957 -3.7013954014629746 -142.8028128602531
 -3.533091214203689 -139.19824968199245 -11.076700196087977 -108.34835472976957 -9.762655848435987 106.4508863187053 -6.210064487281497 -67.78658447479218
 -10.499462047828693 -105.76597174619246 -3.7013954014629746 -142.8028128602531 -6.210064487281497 -67.78658447479218 -9.423704226938842 109.00454548107727
137.6 -11.035855176849235 116.93672844474428 -5.974725346721944 -66.83818286012213 -3.4790110915079446 -141.35657631051214 -10.736173903643945 -107.13723767861212
 -5.9747253467219466 -66.83818286012213 -9.57875060833265 108.52977889254467 -11.336387146206821 -109.57806319469864 -3.6447803594533807 -144.94707266216287
 -3.4790110915079446 -141.35657631051214 -11.336387146206821 -109.57806319469864 -10.170489218213373 104.2376357381904 -6.088354861438136 -68.80141538775072
 -10.736173903643946 -107.13723767861214 -3.6447803594533807 -144.94707266216287 -6.088354861438136 -68.80141538775072 -9.793670665482434 106.9391298791165
139.2 -11.54234481147705 114.72621325582402 -5.862575736415888 -67.89321867706074 -3.427973552282885 -143.53475255571075 -10.991157377197887 -108.46087760421075
 -5.862575736415887 -67.89321867706074 -9.953070827299355 106.48681206782481 -11.615247767038523 -110.73692124178491 -3.590554756577329 -147.11024510920674
 -3.427973552282886 -143.53475255571078 -11.615247767038523 -110.73692124178491 -10.612178111735883 101.9508055687191 -5.966566237268571 -69.87649557236386
 -10.991157377197887 -108.46087760421075 -3.590554756577329 -147.11024510920674 -5.966566237267575 -69.87649557236398 -10.19286771933244 104.81358025730081
140.8 -12.095141349619368 112.41192438433876 -5.7510326015315885 -69.00517494521459 -3.380188780915587 -145.73147608235462 -11.26554433894659 -109.72356406015459
 -5.7510326015315885 -69.00517494521459 -10.356397638480155 104.38381624933257 -11.914311052405855 -111.80775091187851 -3.538895207889806 -149.29131970925266
 -3.3801887809155895 -145.7314760823546 -11.914311052405855 -111.80775091187851 -11.091300417007133 99.58140674849552 -5.845498674232246 -71.01221909833643
 -11.265544338946592 -109.72356406015459 -3.538895207889806 -149.29131970925266 -5.845498674232246 -71.01221909833643 -10.62414069226576 102.62167228184187
142.4 -12.700295633631665 109.9749426833024 -5.6408502086493595 -70.17417597446908 -3.3358482915673586 -147.94530895009908 -11.560428539407361 -110.90964097579908
 -5.640850208649356 -70.1741759744691 -10.791538604684039 102.21400419846807 -12.234484650812123 -112.77032989803853 -3.489962561459159 -151.48918529130393
 -3.3358482915673586 -147.94530895009908 -12.234484650812123 -112.77032989803853 -11.612039982853759 97.11762567383197 -5.725959394611442 -72.20843447573151
 -11.560428539407361 -110.90964097579908 -3.489962561459159 -151.48918529130393 -5.725959394611442 -72.20843447573151 -11.090779521056259 100.35532204088855
144.0 -13.365153936970195 107.38936069225925 -5.53278720423088 -71.39983664513083 -3.295122051916878 -150.17469325870084 -11.876823264173877 -112.00073534930083
 -5.53278720423088 -71.39983664513085 -11.261746614652669 99.96856367824053 -12.576474590531845 -113.60089765223165 -3.443899845255996 -153.7026450789038
 -3.295122051916878 -150.17469325870084 -12.576474590531845 -113.60089765223167 -12.179341429162072 94.54373427956854 -5.608752695085675 -73.46444329601336
 -11.87682326417388 -112.00073534930083 -3.443899845255996 -153.7026450789038 -5.608752695085675 -73.46444329601336 -11.596626383021533 98.00392176266477
145.6 -14.09875242762519 104.61901556060779 -5.427597240142461 -72.68126232531492 -3.258155968677462 -152.4179703195949 -12.215600890028462 -112.97530752809493
 -5.427597240142463 -72.68126232531492 -11.7708280290356 97.63595166529828 -12.940671447335426 -114.27161545162673 -3.400830611861192 -155.93043441253755
 -3.258155968677462 -152.4179703195949 -12.940671447335427 -114.27161545162673 -12.799114044704599 91.83850263988154 -5.494670039756141 -74.77900830899125
 -12.215600890028462 -112.97530752809492 -3.400830611860184 -155.9304344125375 -5.494670039756141 -74.77900830899125 -12.146216244076584 95.55340295714653
147.2 -14.9123520487646 101.61230496715935 -5.326019790534123 -74.01705763920006 -3.225069854215123 -154.67340294969006 -12.577406781453124 -113.80814150629006
 -5.326019790534124 -74.01705763920005 -12.32328311946434 95.20090119790166 -13.326989958170838 -114.75001413601812 -3.3608577782190374 -158.1712406183064
 -3.225069854214122 -154.67340294969006 -13.326989958170918 -114.75001413601787 -13.478501180099236 88.97283247200647 -5.384480563345702 -76.15037042698864
 -12.577406781453124 -113.80814150629006 -3.3608577782190374 -158.1712406183064 -5.384480563345705 -76.15037042698874 -12.74496154383959 92.98488808322656
148.8 -15.820155750147977 98.29367053912993 -5.228771381393624 -75.40534357391867 -3.195955982854624 -156.93920029040865 -12.962537049442627 -114.46978940410867
 -5.228771381393624 -75.40534357391867 -12.924489238713903 92.64299400333563 -13.734645287606755 -114.99850268022506 -3.3240630420573587 -160.42372434554298
 -3.195955982854624 -156.93920029040865 -13.734645287606755 -114.99850268022506 -14.226235415728368 85.90613466396954 -5.278922189966329 -77.57627388588101
 -12.962537049442624 -114.46978940410867 -3.3240630420573587 -160.42372434554298 -5.278922189966329 -77.57627388588101 -13.399395982801963 90.27270447411422
150.4 -16.840231015561823 94.5490547755658 -5.136537429868714 -76.84378214340009 -3.1708783264667106 -159.2135443630201 -13.37076605227071 -114.9260089615201
 -5.136537429868712 -76.84378214340009 -13.580940245068586 89.93455974652024 -14.161845861526192 -114.97407872380028 -3.290506933298495 -162.68654154239024
 -3.1708783264667124 -159.2135443630201 -14.161845861526192 -114.97407872380028 -15.05310053998291 82.58061797927567 -5.1786935423191025 -79.05399857131617
 -13.37076605227071 -114.9260089615201 -3.29050693329749 -162.6865415423902 -5.1786935423191025 -79.05399857131617 -14.117496682834963 87.38138143251712
152.0 -17.995547528887343 90.20000456220244 -5.049964858133893 -78.32960760505121 -3.1498725319798937 -161.49461741971118 -13.801105482591893 -115.1372776263112
 -5.049964858132894 -78.32960760505121 -14.300558633898328 87.037501811243 -14.605382285312182 -114.62849246217016 -3.260229528500565 -164.95836512917592
 -3.149872531979896 -161.49461741971118 -14.605382285312096 -114.62849246217061 -15.972508877344247 78.91198710633452 -5.084446779873085 -80.5803983470879
 -13.801105482591895 -115.13727762631123 -3.2602295284995564 -164.9583651291758 -5.084446779873085 -80.5803983470879 -14.909107174340946 84.26097599085013
153.6 -19.314583349499298 84.95556740089425 -4.969655607970735 -79.85966305838097 -3.1329466696617354 -163.78062903415096 -14.251473603801736 -115.05854364275095
 -4.9696556079697345 -79.85966305838097 -15.093097121792361 83.89836091992565 -15.060099489865932 -113.90928049540864 -3.2332518207035497 -167.237905360912
 -3.132946669661734 -163.78062903415096 -15.060099489865845 -113.90928049540915 -17.0011449038756 74.77375612531513 -4.996781464213849 -82.1519441079715
 -14.251473603801736 -115.05854364275095 -3.2332518207035488 -167.23790536091195 -4.996781464213849 -82.1519441079715 -15.786479780411508 80.83956086635487
155.2 -20.829252900356586 78.31990098660314 -4.896161139707248 -81.43044115398428 -3.12008274221525 -166.0698418236043 -14.71825352849525 -114.63949851420429
 -4.8961611397072495 -81.43044115398428 -15.970636227933479 80.44039539714088 -15.518264425534529 -112.76230295653927 -3.2095776982415987 -169.52392788211392
 -3.12008274221525 -166.0698418236043 -15.518264425534529 -112.76230295653927 -18.159423391237905 69.96984785786324 -4.9162395074062655 -83.7647702260873
 -14.718253528495246 -114.63949851420429 -3.2095776982415987 -169.52392788211392 -4.9162395074062655 -83.7647702260873 -16.764925844928428 77.01072752112363
156.8 -22.561694276696027 69.41593291328451 -4.829977955207288 -83.03812760943259 -3.1112389034742867 -168.3605947059626 -15.195729415018286 -113.82583867576261
 -4.829977955207286 -83.0381276094326 -16.948139881017706 76.55044885177786 -15.96889901039197 -111.13663119736916 -3.1891964471254846 -171.8152685424113
 -3.111238903474285 -168.3605947059626 -15.96889901039197 -111.13663119736916 -19.47084301320563 64.18526762602283 -4.843301216981474 -85.41472307018901
 -15.195729415018286 -113.82583867576261 -3.1891964471254846 -171.8152685424113 -4.843301216981474 -85.41472307018901 -17.863445343584164 72.61203415886801
158.4 -24.470105459520248 56.702888505794206 -4.77154414198906 -84.67864626639685 -3.1063522948770634 -170.65132268680685 -15.675420109710059 -112.56221859790683
 -4.771544141989057 -84.67864626639685 -18.043880127636065 72.05643793491639 -16.39725307468029 -108.99267620762544 -3.1720856556505734 -174.11084419640216
 -3.1063522948770634 -170.65132268680685 -16.39725307468029 -108.99267620762544 -20.957149580385668 56.89648116998787 -4.778382411433036 -87.097410348531
 -15.675420109710064 -112.56221859790685 -3.1720856556505734 -174.11084419640216 -4.778382411433036 -87.097410348531 -19.104810437866128 67.38654591822971
160.0 -26.275342010285346 37.957607180929955 -4.721236896882982 -86.34770452404553 -3.1053423710789834 -172.94057232776552 -16.145397433460978 -110.79781099716551
 -4.721236896881981 -86.34770452404553 -19.2790625177699 66.68761948947805 -16.784742968097127 -106.31397138846857 -3.15821437032283 -176.40965891440422
 -3.1053423710789834 -172.94057232776552 -16.784742968097067 -106.31397138846953 -22.619343256171625 47.218698972866285 -4.721832544982344 -88.80825015333168
 -16.145397433460978 -110.79781099716551 -3.158214370322827 -176.40965891440416 -4.721832544982344 -88.80825015333168 -20.513271350413945 60.912627575518286
161.6 -27.205217415411337 12.594858623846074 -4.6793709551483476 -88.04083813939373 -3.1081145562733488 -175.2270122733037 -16.58979638283935 -108.49537512120372
 -4.6793709551483476 -88.04083813939373 -20.67448143901659 60.00357519348562 -17.109820010440036 -103.12155119334587 -3.1475463317821424 -178.7108053007745
 -3.1081145562723473 -175.2270122733037 -17.109820010440085 -103.12155119334481 -24.375648936770812 33.73236617192924 -4.673933751854772 -90.54251875714209
 -16.58979638283935 -108.49537512120372 -3.1475463317811405 -178.71080530077444 -4.673933751854775 -90.54251875714215 -22.10380105768868 52.478143817951064
163.2 -26.559756056478 -13.548968937371015 -4.646197826553516 -89.75345458040584 -3.114564052610516 -177.50943848273587 -16.98888847608152 -105.64408499163585
 -4.646197826553516 -89.75345458040584 -22.237397426478918 51.272599803951955 -17.350201902334135 -99.48721940001705 -3.1400431105035986 178.98653908999393
 -3.114564052610518 -177.50943848273587 -17.350201902334135 -99.48721940001705 -25.908049396246646 14.787027429571774 -4.634900699906403 -92.29539641739441
 -16.988888476081517 -105.64408499163585 -3.1400431105035986 178.98653908999393 -4.634900699906403 -92.29539641739441 -23.84382507767057 40.89174403930642
164.8 -24.859946203836788 -33.584999349541235 -4.621905724657579 -91.48087433743365 -3.124579613535579 -179.78677411698362 -17.32021894502558 -102.27458439158364
 -4.621905724656575 -91.48087433743365 -23.918866886466343 39.312060656095646 -17.486484285815813 -95.53919637882969 -3.1356669657888125 176.6831199429487
 -3.124579613535579 -179.78677411698362 -17.48648428580577 -95.53919637884258 -26.552242465177688 -9.176512764519632 -4.604881131958907 -94.06201066750123
 -17.320218945025573 -102.27458439158364 -3.1356669657888103 176.68311994294874 -4.6048811319579075 -94.06201066750128 -25.541203015542617 24.446347779906745
166.4 -22.954040961073794 -47.194914202393015 -4.6066200698151265 -93.2183698237919 -3.1380470987481255 177.9419356625381 -17.561216177183123 -98.47177390936189
 -4.606620069815126 -93.2183698237919 -25.50108618191895 22.564100382744385 -17.506315217086218 -91.45342806564676 -3.134383267962014 174.37961838744175
 -3.1380470987481246 177.9419356625381 -17.506315217086218 -91.45342806564676 -25.879031449404795 -32.94806006444996 -4.583956970925175 -95.83747679664857
 -17.56121617718312 -98.47177390936189 -3.134383267962014 174.37961838744175 -4.583956970925175 -95.83747679664857 -26.658124992048155 2.185708229172358
168.0 -21.197476621229583 -56.6025964602926 -4.600404449821005 -94.96120171139029 -3.154852643760008 175.67753343521974 -17.693147841381005 -94.37813518508028
 -4.60040444982101 -94.96120171139029 -26.45051063332561 0.5215531694171496 -17.407531171813105 -87.42891508058668 -3.1361623517547166 172.07666638008342
 -3.1548526437600093 175.67753343521971 -17.407531171813105 -87.42891508058668 -24.357569961285833 -51.53329214240197 -4.572145871186377 -97.61693542773497
 -17.693147841381005 -94.37813518508028 -3.1361623517537165 172.07666638008345 -4.572145871186377 -97.61693542773497 -26.52323814641675 -22.61708229943484
169.6 -19.657274792052647 -63.500921692627216 -4.603261933496529 -96.7046527352645 -3.174885304337529 173.4207630066355 -17.705369672941526 -90.18114364570448
 -4.6032619334965315 -96.7046527352645 -26.20068796328084 -23.309801510057515 -17.198736447642222 -83.65422845192805 -3.140980706160594 169.77486422981687
 -3.174885304337529 173.4207630066355 -17.198736447642222 -83.65422845192805 -22.63865445910188 -64.70998547812775 -4.569403112445045 -99.39558728099959
 -17.705369672941526 -90.18114364570448 -3.140980706160594 169.77486422981687 -4.569403112445045 -99.39558728099959 -25.24133794277965 -43.7379574662029
171.2 -18.316607994324038 -68.86781943301607 -4.615136650205505 -98.4440591501049 -3.198039072310503 171.1722856463951 -17.598106411346507 -86.08483516271491
 -4.615136650205502 -98.44405915010489 -24.92348755351696 -43.416459699957194 -16.897021627212855 -80.27812198819811 -3.148821449699597 167.4747991206223
 -3.198039072310503 171.1722856463951 -16.897021627212855 -80.27812198819811 -21.021570457646558 -74.15074267657359 -4.575623751771728 -101.16872534752602
 -17.598106411356504 -86.08483516271492 -3.148821449699601 167.47479912062275 -4.575623751771722 -101.16872534752665 -23.522386085865495 -59.01082393640324
172.8 -17.143522449488056 -73.25484846575867 -4.6359155700985095 -100.17484012506473 -3.224214201244507 168.93269797333528 -17.382362606325504 -82.27488987918471
 -4.635915570098509 -100.17484012506473 -23.2611346789816 -58.1075372180122 -16.523980034486588 -77.39441416443839 -3.1596740862860493 165.17706344601345
 -3.2242142012445085 168.93269797333528 -16.52398003447759 -77.39441416444707 -19.580194557357682 -81.24534057839509 -4.5906449725889695 -102.93176478516382
 -17.382362606325504 -82.27488987918471 -3.1596740862860493 165.17706344601345 -4.5906449725889695 -102.93176478516382 -21.822905163892678 -69.78772209566552
174.4 -16.10839875017868 -76.98402583263012 -4.665430443564711 -101.89252541494999 -3.253317825071714 166.70255033705 -17.07701167203271 -78.89093976241999
 -4.665430443564714 -101.89252541494999 -21.61627739397511 -68.62659423502627 -16.101732337611434 -75.0427450849852 -3.1735335821304593 162.88227182494825
 -3.253317825071714 166.70255033704998 -16.101732337611434 -75.0427450849852 -18.31108229960403 -86.8549516798047 -4.614248593623684 -104.68027088707272
 -17.07701167203271 -78.89093976241999 -3.173533582129462 162.8822718249483 -4.614248593623684 -104.68027088707272 -20.286993223242632 -77.7002674263321
176.0 -15.187118369310992 -80.25216340285718 -4.703459881633698 -103.5927816488156 -3.2852638962156973 164.4823645882844 -16.704522018124695 -76.01498275485561
 -4.703459881633698 -103.5927816488156 -20.121076570694434 -76.4414932177392 -15.650128613423199 -73.21977078544259 -3.190398844755534 160.59107579001963
 -3.2852638962156973 164.4823645882844 -15.650128613423199 -73.21977078544259 -17.191857051005947 -91.48987012826524 -4.646163724147641 -106.40998546082129
 -16.704522018124702 -76.01498275485561 -3.1903988447545357 160.59107579001966 -4.646163724147641 -106.40998546082129 -18.931389631483142 -83.82492524705474
177.6 -14.360693277146343 -83.18497355962187 -4.749731579940612 -105.27143753678668 -3.3199725091066123 162.27265024071332 -16.28706242796061 -73.67545550143669
 -4.74973157994061 -105.27143753678668 -18.793937593414505 -82.54106695873806 -15.185395126913331 -71.8937095814959 -3.210270718439881 158.30417533029043
 -3.3199725091066092 162.27265024071335 -15.185395126913331 -71.8937095814959 -16.198921692999996 -95.45844344343654 -4.686069572201745 -108.11685190109802
 -16.287062427960613 -73.67545550143669 -3.210270718438885 158.30417533029046 -4.686069572201745 -108.11685190109802 -17.737321269498185 -88.8001216209982
179.2 -13.61424114051449 -85.86595771188274 -4.803924705600695 -106.9245082184823 -3.3573687072246954 160.07391819471772 -15.843984414273702 -71.8603206349923
 -4.803924705600696 -106.9245082184823 -17.619526387187868 -87.52421383328281 -14.71989771676888 -71.01735632128806 -3.233149634042018 156.02232670153552
 -3.357368707224697 160.0739181947177 -14.71989771676888 -71.01735632128806 -15.311905955049143 -98.95378483341827 -4.7335984281787296 -109.79703914935943
 -15.843984414273702 -71.8603206349923 -3.233149634042018 156.02232670153552 -4.7335984281787296 -109.79703914935943 -16.68030105437997 -93.00580309524013
180.8 -12.936025570399867 -88.35247946841984 -4.865672477994797 -108.54821887420535 -3.397380895314802 157.88669141009467 -15.390762591141801 -70.53207127953533
 -4.865672477993799 -108.54821887420536 -16.576107525754963 -91.75327611589535 -14.26253752992496 -70.53760709044553 -3.2590330641800627 153.7463461741653
 -3.397380895314802 157.88669141009467 -14.262537529925076 -70.5376070904459 -14.51420401950119 -102.10144619528 -4.7883388563073925 -111.4469646203078
 -15.390762591141803 -70.53207127953533 -3.259033064180066 153.74634617416535 -4.7883388563073925 -111.4469646203078 -15.738196618032639 -96.67553560491679
182.4 -12.316697184956631 -90.6850898697378 -4.934564980268338 -110.13902760676451 -3.439938991898337 155.7115121480355 -14.938968882363339 -69.64034584079451
 -4.934564980268335 -110.13902760676451 -15.643461336457609 -95.45373792177219 -13.819392396317784 -70.40148322870637 -3.287912936907658 151.4771096503898
 -3.4399389918983383 155.7115121480355 -13.819392396317784 -70.40148322870637 -13.792491463230414 -104.98591525078027 -4.849839130438457 -113.06331605218233
 -14.93896888236334 -69.64034584079451 -3.287912936907658 151.4771096503898 -4.849839130438457 -113.06331605218233 -14.89274689051776 -99.95841047713672
184.0 -11.748722962628253 -92.89315357236401 -5.010152238442793 -111.69364748307123 -3.484972460653796 153.54894564392876 -14.496783551928793 -69.13075987430123
 -5.010152238442794 -111.69364748307123 -14.804620812533425 -98.77081591979521 -13.394374969268501 -70.55944866245314 -3.3197731531782053 149.21554832390368
 -3.4849724606527936 153.5489456439288 -13.394374969268393 -70.5594486624529 -13.136079951268167 -107.66579603673779 -4.917610948329565 -114.64307211582285
 -14.496783551928793 -69.13075987430122 -3.3197731531782053 149.21554832390368 -4.9176109483285595 -114.64307211582303 -14.129281573645581 -102.9530455686489
185.6 -11.22596294778683 -94.99836650606031 -5.091947599762481 -113.2090675191829 -3.532408353377476 151.39958029881714 -14.069681559956477 -68.95027145084288
 -5.091947599762477 -113.2090675191829 -14.045795040551061 -101.80117258227345 -12.989803713121532 -70.96691990894499 -3.3545873369596584 146.96264076999086
 -3.532408353377477 151.39958029881714 -12.989803713121532 -70.96691990894499 -12.536342997983155 -110.18281482038826 -4.991133450770784 -116.18352150562873
 -14.069681559956475 -68.95027145084286 -3.3545873369596584 146.96264076999086 -4.991133450770784 -116.18352150562873 -13.43606447099231 -105.7267583875744
187.2 -10.74335598153787 -97.01702749126152 -5.1794314321836605 -114.682572300601 -3.582169483349661 149.264024674099 -13.66109538172566 -69.049994693561
 -5.179431432183664 -114.68257230060102 -13.355853224077624 -104.61107502090674 -12.606857101219147 -71.584691302455 -3.392316923935291 144.71940202055254
 -3.582169483349661 149.264024674099 -12.606857101219147 -71.584691302455 -11.98625657006161 -112.56735022835737 -5.069857559440502 -117.68228015171682
 -13.66109538172566 -69.049994693561 -3.3923169239342963 144.7194020205526 -5.069857559440502 -117.68228015171682 -12.803660933407965 -108.32676101691801
188.8 -10.29668474820014 -98.96154900968264 -5.272055153832618 -116.11175986459861 -3.6341728280256156 147.14290173070137 -13.272972309009617 -69.38636864589863
 -5.272055153832618 -116.11175986459861 -12.72578308149737 -107.2471258153918 -12.24591702633293 -72.37877121719772 -3.432909667587516 142.4868702957782
 -3.6341728280256156 147.14290173070137 -12.24591702633293 -72.37877121719772 -11.480044825961357 -114.84194073985005 -5.153210631437 -119.13730612870692
 -13.272972309009617 -69.38636864589863 -3.432909667587516 142.4868702957782 -5.153210631437 -119.13730612870692 -12.224420385309116 -110.7869339239214
190.4 -9.882398472059798 -100.84148941543222 -5.369245586017566 -117.49455743391127 -3.6883282361545646 145.03684086698877 -12.906209305408565 -69.92137004297126
 -5.369245586017567 -117.49455743391127 -12.148231753082328 -109.74281899480101 -11.906820408345844 -73.31993774224654 -3.4762986124555133 140.2660921308371
 -3.6883282361545655 145.03684086698877 -11.906820408345844 -73.31993774224654 -11.012910040125977 -117.02357672953391 -5.240601410585896 -120.5469118126825
 -12.906209305408565 -69.92137004296127 -3.4762986124554978 140.26609213083714 -5.240601410585923 -120.54691181268251 -11.692075182457025 -113.13206573993189
192.0 -9.497477783731767 -102.66427587550253 -5.470409607401054 -118.82923457893259 -3.7445374888240557 142.94646837056737 -12.560977555386055 -70.62222606529261
 -5.470409607401054 -118.82923457893259 -11.617142648638279 -112.12267590092841 -11.589039872529941 -74.38319177069862 -3.522401555667236 138.05810664667155
 -3.744537488824054 142.94646837056737 -11.589039872529941 -74.38319177069862 -10.580826836762018 -119.12523981332131 -5.331425237132873 -121.90977284454016
 -12.560977555386055 -70.62222606529261 -3.522401555667236 138.05810664667155 -5.331425237132873 -121.90977284454016 -11.201435285709053 -115.38059115759991
193.6 -9.139330731412926 -104.4357223696485 -5.574939071145064 -120.11441340742458 -3.802693738637062 140.87239691617543 -12.236958043031063 -71.46090321559456
 -5.574939071145062 -120.11441340742458 -11.12747538986337 -114.40493317726052 -11.291811795090004 -75.54720279445378 -3.5711209914002318 135.86392968483335
 -3.802693738637062 140.87239691617543 -11.291811795090004 -75.54720279445378 -10.180384756234435 -121.15696289520004 -5.425069459766233 -123.2249334950654
 -12.236958043031063 -71.46090321559456 -3.5711209914002318 135.86392968483335 -5.425069459766233 -123.2249334950654 -10.748156741995754 -117.54641003249422
195.2 -8.80571204643939 -106.16040863330932 -5.682215932472442 -121.34907542093477 -3.86268132786544 138.81521472166526 -11.933509506909443 -72.41352759004475
 -5.68221593247244 -121.34907542093475 -10.674991519517096 -116.60333790713439 -11.014226235359835 -76.79379360433832 -3.6223445100353793 133.6845384572716
 -3.8626813278654417 138.81521472166526 -11.014226235359835 -76.79379360433832 -9.808667039273207 -123.12657701349718 -5.5209189782615065 -124.4918080994965
 -11.933509506909443 -72.41352759004477 -3.6223445100353793 133.6845384572716 -5.520918978260503 -124.49180809949662 -10.328565657855208 -119.64012758675089
196.8 -8.494659964222455 -107.84196258662047 -5.791617521742152 -122.5325647422066 -3.9243759663451523 136.7754749120934 -11.649786748980153 -73.45981716863659
 -5.7916175217421495 -122.5325647422066 -10.256090514446655 -118.72837627595042 -10.75528967906723 -78.1074824822241 -3.675945605466906 131.52085726802972
 -3.924375966345151 136.7754749120934 -10.75528967906723 -78.1074824822241 -9.463156640524307 -125.0402485223956 -5.618361832277387 -125.71017831740191
 -11.649786748980153 -73.45981716863659 -3.675945605466906 131.52085726802972 -5.618361832277387 -125.71017831740191 -9.93952361412427 -121.66991977274711
198.4 -8.204446436789903 -109.48327429025844 -5.902521888440724 -123.66458749933798 -3.987645233815722 134.753685567262 -11.38482325301872 -74.58256336203802
 -5.902521888440724 -123.66458749933798 -9.867683807582708 -120.78813318867192 -10.513968559816025 -79.47508680789775 -3.7317848307826695 129.3737447488792
 -3.9876452338157247 134.753685567262 -10.513968559816025 -79.47508680789775 -9.141662840849582 -126.90287269100843 -5.716794742810103 -126.88018608693402
 -11.384823253018721 -74.582563362038 -3.7317848307826695 129.3737447488792 -5.716794742810105 -126.88018608693402 -9.578324064845107 -123.64214969371683
200.0 -7.933537657442097 -111.086660277903 -6.014313134717776 -124.7452072395918 -4.052349359849775 132.7503008290082 -11.137588468429778 -75.7671751679318
 -6.014313134716776 -124.74520723959178 -9.50709746245208 -122.78890547603476 -10.289219260830635 -80.88538481498823 -3.7897112342634403 127.24398293465342
 -4.052349359849775 132.7503008290082 -10.289219260830706 -80.88538481498819 -8.842263556604609 -128.7183668358909 -5.81562850777123 -128.00232226369687
 -11.137588468429776 -75.76717516793181 -3.7897112342634474 127.24398293465352 -5.81562850777123 -128.00232226369687 -9.24261201571593 -125.56181474548838
201.6 -7.680562591040475 -112.65399118215693 -6.126386653409749 -125.77483634749301 -4.118342227330751 130.76571334640707 -10.907027244547752 -77.00128694202297
 -6.126386653409751 -125.77483634749301 -9.171996499555787 -124.73564678353698 -10.080008630579737 -82.32882918668125 -3.8495640041956545 125.13226838335838
 -4.118342227330751 130.76571334640707 -10.080008630579737 -82.32882918668125 -8.56325969948133 -130.48989170807837 -5.914293152460126 -129.07741105940076
 -10.907027244547754 -77.00128694202297 -3.8495640041956545 125.13226838335838 -5.914293152459128 -129.0774110594009 -8.93032130626285 -127.43287609342379
203.2 -7.444287761675166 -114.18679167934765 -6.238154184810703 -126.75422353670197 -4.185472542426705 128.8002482344981 -10.692086739188703 -78.27442498270194
 -6.238154184809702 -126.75422353670197 -8.860325660237622 -126.63229503386543 -9.885327845986186 -83.79730533310807 -3.9111742515770267 123.03920543475404
 -4.185472542426703 128.80024823449807 -9.885327845986254 -83.797305333108 -8.303138852693372 -132.2200206498886 -6.012242739123752 -130.10659052075826
 -10.692086739188698 -78.27442498270194 -3.9111742515770342 123.03920543475411 -6.012242739123752 -130.10659052075826 -8.639625295567097 -129.2585046772496
204.8 -7.223596957891556 -115.68631919003532 -6.349048608630334 -127.68443758452767 -4.253585114428337 126.85415863207234 -10.491734553588339 -79.57772588104766
 -6.349048608630335 -127.68443758452767 -8.570262718306285 -128.4820163727553 -9.70420160622539 -85.28392743152202 -3.974366863818468 120.96530160668966
 -4.253585114428335 126.85415863207234 -9.70420160622539 -85.28392743152202 -8.060546194925072 -133.9108700457607 -6.108959747170807 -131.09128940428639
 -10.491734553588339 -79.57772588104766 -3.974366863818468 120.96530160668966 -6.108959747170807 -131.09128940428639 -8.36889782211357 -131.04126687709933
206.4 -7.017474818668829 -117.1536260194036 -6.458528392471232 -128.56684756966612 -4.322522192190229 124.92762286123393 -10.304970723366232 -80.90369917972609
 -6.458528392471229 -128.56684756976608 -8.300181424845952 -130.2873886600089 -9.535694042502097 -86.78286602733768 -4.038962369063021 118.91096504252799
 -4.322522192190233 124.92762286123393 -9.535694042501895 -86.7828660273314 -7.834261093687299 -135.56420061636916 -6.2039589464189255 -132.03320090574528
 -10.304970723366232 -80.90369917972609 -4.038962369062786 118.91096504252876 -6.2039589464189255 -132.03320090574528 -8.116682088145133 -132.78326581487178
208.0 -6.824993491376707 -118.58960842116305 -6.566081625368234 -129.40309995423408 -4.392124809300234 123.02074312546593 -10.130835404768233 -82.24602735295406
 -6.566081625368233 -129.40309995423408 -8.048621889738921 -132.05054050879943 -9.378912311758327 -88.28920186439716 -4.104778758947549 116.87650386322511
 -4.392124809300234 123.02074312546593 -9.378912311758327 -88.28920186439716 -7.623178154007992 -137.18149643223308 -6.296790699484549 -132.93425378829545
 -10.130835404768233 -82.24602735295406 -4.104778758947549 116.87650386322511 -6.296790699484549 -132.93425378829545 -7.881665690838745 -134.48624953941442
209.6 -6.645301726747515 -119.99504523201563 -6.6712295742783265 -130.1950929281223 -4.462234096895327 121.1335456306777 -9.968413541705324 -83.5993969444323
 -6.6712295742783265 -130.1950929281223 -7.814266734386033 -133.77325718703383 -9.233008551497399 -89.79880147557321 -4.17163322678596 114.86212722708456
 -4.462234096895326 121.1335456306777 -9.233008551497399 -89.79880147557321 -7.42629178205531 -138.76402669017457 -6.387043645319055 -133.7965815177897
 -9.968413541705324 -83.5993969444323 -4.17163322678596 114.86212722708456 -6.387043645319055 -133.7965815177897 -7.662660445573622 -136.15169416450226
211.2 -6.477615910038308 -121.37062812534899 -6.773529712457895 -130.94494849196477 -4.532692530516894 119.26598197583525 -9.816837413500894 -84.95935561181477
 -6.773529712457895 -130.94494849196477 -7.595921745305169 -135.45706152407962 -9.097180671523537 -91.30821084405106 -4.239343787567197 112.86794787486875
 -4.532692530516894 119.26598197583525 -9.097180671523537 -91.30821084405106 -7.242683531031581 -140.31289401795658 -6.474346733274745 -134.6224900554299
 -9.816837413500895 -84.95935561181477 -4.239343787566205 112.86794787486886 -6.474346733274745 -134.6224900554299 -7.458585962248976 -137.7808678543275
212.8 -6.321212632158394 -122.71698510114776 -6.872578181148415 -131.65498280217253 -4.603345085049416 117.41793163882747 -9.675287694857417 -86.32219069317252
 -6.872578181148418 -131.65498280217253 -7.392500054372787 -137.10327578214435 -8.9706723179681 -92.81456411734845 -4.307730755257633 110.893985920439
 -4.6033450850484146 117.4179316388275 -8.970672317968045 -92.81456411734855 -7.071511655702427 -141.82907216893162 -6.5583705950647335 -135.4144249748048
 -9.675287694857417 -86.32219069317252 -4.307730755257633 110.893985920439 -6.558370595064742 -135.414424974805 -7.268456173298658 -139.37488003461644
214.4 -6.175422486777125 -124.03469850860493 -6.9680116594105135 -132.32767533281725 -4.674040279132513 115.58920536958277 -9.542993472928513 -87.68482567910725
 -6.9680116594105135 -132.32767533281725 -7.203009094991115 -138.71306891815715 -8.85277224807162 -94.31550491643493 -4.376618061392516 108.9401736461038
 -4.6740402791325115 115.58920536958277 -8.852772248071597 -94.31550491644438 -6.912002425007185 -143.3134353127971 -6.638828259899769 -136.17493856577755
 -9.542993472928512 -87.68482567910725 -4.376618061392516 108.9401736461038 -6.638828259899769 -136.17493856577755 -7.091368192493746 -140.9347191302157
216.0 -6.039624844510119 -125.32431865147295 -7.0595086309519495 -132.96563742464707 -4.7446310971609496 113.77954930385296 -9.419231536542952 -89.04473162754707
 -7.059508630951951 -132.96563742464707 -7.026539753312145 -140.28749257286748 -8.742813286600056 -95.80911824143696 -4.445834406388475 107.00636106815335
 -4.7446310971599495 113.77954930385295 -8.742813286600002 -95.80911824143708 -6.763442837814767 -144.76678064972901 -6.715475235024636 -136.90665755548667
 -9.41923153654295 -89.04473162754707 -4.445834406388475 107.00636106815335 -6.715475235024648 -136.90665755548687 -6.926493021628064 -142.46128135355428
217.6 -5.913243406982813 -126.58637383596314 -7.146790050914099 -133.57158078930726 -4.814975782922098 111.98864961799278 -9.303325162047098 -90.39985109991724
 -7.146790050914099 -133.57158078930726 -6.862257263437359 -141.8275083275264 -8.640170987703726 -97.2938713462973 -4.515214241465973 105.09232205703256
 -4.814975782922098 111.98864961799278 -8.640170987703726 -97.2938713462973 -6.625174461822495 -146.18984571236484 -6.788108989341774 -137.61225203205584
 -9.303325162047095 -90.39985109991724 -4.515214241465973 105.09232205703256 -6.788108989341774 -137.61225203205584 -6.773067728387929 -143.95539249415413
219.2 -5.7957423847980305 -127.82137756928655 -7.22961942925144 -134.14828651792897 -4.884938503926442 110.21613755577104 -9.194642556826441 -91.74853264014898
 -7.229619429251438 -134.14828651792897 -6.709393495295291 -143.3340081862197 -8.54426209309673 -98.7685622523923 -4.584598584255642 103.19776081269214
 -4.884938503926442 110.21613755577104 -8.54426209309673 -98.7685622523923 -6.496588174557225 -147.58332144426728 -6.856567891050966 -138.29440608427817
 -9.194642556826441 -91.74853264014897 -4.584598584255642 103.19776081269214 -6.856567891049984 -138.2944060842784 -6.630388800844699 -145.41782423376583
220.8 -5.686623176233648 -129.0298334931826 -7.30780236023962 -134.6985751120358 -4.954389889483618 108.4615946794642 -9.092595077001619 -93.0894741759858
 -7.307802360239618 -134.6985751120358 -6.567240360800401 -144.8078298007038 -8.45454285415464 -100.23227480802196 -4.653835675305567 101.32231852247527
 -4.954389889483618 108.4615946794642 -8.45454285415464 -100.23227480802196 -6.377119631705131 -148.94786193076365 -6.920729660989702 -138.95579059727092
 -9.092595077000619 -93.0894741759858 -4.653835675304566 101.32231852247527 -6.920729660989685 -138.95579059727072 -6.497806447782416 -146.84930618434436
222.4 -5.585421449632148 -130.2122385335109 -7.381185539133005 -135.22527800286875 -5.023207448754006 106.72455821103127 -8.996635304229006 -94.42167400996874
 -7.381185539133006 -135.22527800286875 -6.435144123524675 -146.24976762617104 -8.370507268908016 -101.68433938979146 -4.722781485700549 99.46558005252682
 -5.023207448754007 106.72455821103127 -8.370507268908016 -101.68433938979146 -6.266245324796879 -150.28409148686157 -6.980509411175916 -139.59903854856682
 -8.996635304229006 -94.42167400996874 -4.722781485700549 99.46558005252682 -6.980509411175916 -139.59903854856682 -6.374719663721749 -148.2505345956422
224.0 -5.4917045532390585 -131.3690846652283 -7.449655316834482 -135.73121096737452 -5.091275877188481 105.00452635626549 -8.906255044006482 -95.74438829857453
 -7.449655316834482 -135.73121096737452 -6.312500443289358 -147.66058093600884 -8.291685272872453 -103.12429849224732 -4.791300088108714 97.62708054980139
 -5.091275877188478 105.00452635627548 -8.291685272872423 -103.12429849224687 -6.1634791190455065 -151.59260967340995 -7.035857342982418 -140.22672306020564
 -8.906255044006484 -95.74438829857453 -4.791300088108714 97.62708054980139 -7.035857342982376 -140.22672306020587 -6.260571916235183 -149.62217848452832
225.6 -5.4050691926529595 -132.50085961738236 -7.5131358512207775 -136.21914977903998 -5.1584872613247725 103.30096351742004 -8.820983291610776 -97.05709410403996
 -7.513135851220779 -136.21914977903998 -6.198750023043057 -149.04099942825488 -8.217640913798812 -104.55187657226983 -4.859263904789806 95.80631185457159
 -5.158487261324774 103.30096351742006 -8.217640913798812 -104.55187657226983 -6.068369185104775 -152.87399470092618 -7.086756181350241 -140.84133836684384
 -8.820983291610776 -97.05709410403996 -4.859263904789806 95.80631185457159 -7.086756181350241 -140.84133836684384 -6.154847343387397 -150.96488378090783
227.2 -5.325139328997498 -133.60804678448702 -7.57158691930877 -136.69180835416608 -5.2247411927347684 101.61330532384397 -8.740384199960772 -98.35945725126606
 -7.571586919308771 -136.69180835416608 -6.0933747533328955 -150.3917269990645 -8.147970533710772 -105.96695361128548 -4.926553846683947 94.00272864734107
 -5.2247411927347684 101.61330532384397 -8.147970533710772 -105.96695361128548 -5.980495256400349 -154.12880559558388 -7.13321842067217 -141.4452837695224
 -8.740384199960774 -98.35945725126606 -4.926553846683947 94.00272864734107 -7.13321842067217 -141.4452837695224 -6.057067372731341 -152.2792759665974
228.8 -5.251564261169173 -134.69112456119984 -7.625001457626821 -137.15181957748771 -5.2899448022428235 99.94096342569227 -8.66405507485382 -99.65130434478773
 -7.625001457626821 -137.15181957748771 -5.995894271460756 -151.71344413603424 -8.082300976468122 -107.36954193660736 -4.9930593577006395 92.2157542724747
 -5.289944802242825 99.94096342569229 -8.082300976468122 -107.36954193660736 -5.899466157912565 -155.3575834247397 -7.1752834548370785 -142.0408505617009
 -8.664055074853819 -99.65130434478773 -4.99305935769965 92.21575427247483 -7.1752834548370785 -142.0408505617009 -5.966787691747459 -153.56596158030595
230.4 -5.1840168633351364 -135.75056527150528 -7.673402899051862 -137.60171890908282 -5.354012725449863 98.2833300110272 -8.591624416465862 -100.93259839688281
 -7.673402899051862 -137.6017189090828 -5.905862869366029 -153.00680928738853 -8.020287835032269 -108.75976590574092 -5.058678377905384 90.44478620001202
 -5.35401272544986 98.2833300110272 -8.020287835032269 -108.75976590574092 -5.82491756335911 -156.56085182425684 -7.213014658714037 -142.6302118406498
 -8.591624416465859 -100.93259839688281 -5.058678377904393 90.44478620001216 -7.213014658714037 -142.6302118406498 -5.883595513982483 -154.82552888703066
232.0 -5.122191955151631 -136.78683383267182 -7.716842373037132 -138.04393080214678 -5.41686701017513 96.63978202065321 -8.522750020912131 -102.2034175996468
 -7.716842373037131 -138.04393080214678 -5.8228666974989345 -154.27245948459145 -7.961613749350001 -110.13784411208371 -5.123317238582766 88.6892011014246
 -5.416867010174129 96.63978202065321 -7.961613749349961 -110.13784411208385 -5.756509946457944 -157.73911701765834 -7.246496481640059 -143.2154150572463
 -8.52275002091213 -102.20341759964678 -5.123317238582766 88.6892011014246 -7.246496481640089 -143.21541505724645 -5.807107096387172 -156.0585479455744
233.6 -5.0658047868078535 -137.8003862604799 -7.755395832914403 -138.48075788926732 -5.478436975777404 95.00968504652269 -8.457117151822404 -103.46393683816731
 -7.755395832914406 -138.48075788926732 -5.746521222260274 -155.51101043610842 -7.9059867631106275 -111.50407381160967 -5.1868905012099695 86.94835952820758
 -5.478436975777403 95.00968504652269 -7.905986763109665 -111.50407381160953 -5.69392669872296 -158.89286747988714 -7.275831605601675 -143.7983771038176
 -8.457117151822404 -103.46393683816731 -5.1868905012099695 86.94835952820758 -7.275831605601675 -143.7983771038176 -5.736965472069926 -157.26557025625385
235.2 -5.014589624726044 -138.7916681005293 -7.789161169065054 -138.9143728355674 -5.538659033562055 93.39239690861262 -8.394436788772056 -104.7144115989674
 -7.789161169065056 -138.9143728355674 -5.676468902588507 -156.72305625959999 -7.85313874542887 -112.85881730862285 -5.249320751302806 85.22161019239043
 -5.538659033562054 93.39239690861262 -7.85313874542887 -112.85881730862285 -5.636872391577414 -160.02257336485476 -7.301138212362406 -144.38088170829883
 -8.394436788772055 -104.71441159896739 -5.2493207513018145 85.22161019239059 -7.301138212362406 -144.38088170829883 -5.672838369510696 -158.44712813095921
236.8 -4.9682984264994525 -139.76111284993718 -7.818255360572111 -139.34681270335605 -5.597476476532112 91.78727091328399 -8.334443957045112 -105.95516397135604
 -7.8182553605721115 -139.34681270335605 -5.612377057608872 -157.90916898170738 -7.802823881688777 -114.20249006904058 -5.310538356941815 83.50829385636338
 -5.597476476532107 91.78727091328399 -7.802823881688777 -114.20249006904058 -5.58507116465816 -161.12868578988207 -7.322547395140121 -144.96457887446542
 -8.334443957045108 -105.95516397135603 -5.310538356941815 83.50829385636338 -7.322547395140121 -144.96457887446542 -5.614416294608585 -159.6037338949638
238.4 -4.926699595761383 -140.7091404167483 -7.8428117109443365 -139.7799756350362 -5.654839245892336 90.1936588019438 -8.276896141258337 -107.18657048113621
 -7.842811710944338 -139.7799756350362 -5.553935902091409 -159.0698979039462 -7.754817236202998 -115.53555035759231 -5.370481200676683 81.80774684575054
 -5.654839245892333 90.1936588019438 -7.754817236202998 -115.53555035759231 -5.538265225441002 -162.21163604852498 -7.340200741922729 -145.55098609921902
 -8.276896141258337 -107.18657048113621 -5.370481200676683 81.80774684575054 -7.340200741922729 -145.55098609921902 -5.561410756026138 -160.7358790039999
240.0 -4.889576809274115 -141.6361556521949 -7.862977205931124 -140.2156196285009 -5.710703680736124 88.61091340327911 -8.221571783841126 -108.40905152690091
 -7.8629772059311245 -140.2156196285009 -5.500856730400509 -160.20576890879394 -7.708913388124349 -116.85849021674191 -5.429094392303636 80.11930420366114
 -5.710703680736123 88.61091340327911 -7.708913388124349 -116.85849021674191 -5.496213447774653 -163.2718348082955 -7.354248109520736 -146.14149109265824
 -8.221571783841128 -108.40905152690091 -5.429094392302649 80.1193042036613 -7.354248109520736 -146.14149109265824 -5.513552617592806 -161.84403313888802
