#  GHZ S DB R 50.0
 8.00000000e+01 -5.191095298994e+00 +1.580487106397e+02 -7.497493939067e+00 -4.863998131828e+01 -5.739112515957e+00 -7.942240095700e+01 -7.469687532414e+00 -6.206023879709e+01 -7.497493939067e+00 -4.863998131828e+01 -5.192338367761e+00 +1.580764928338e+02 -7.467138083263e+00 -6.204291307571e+01 -5.739130813945e+00 -7.942355550921e+01 -5.739112515957e+00 -7.942240095700e+01 -7.467138083263e+00 -6.204291307571e+01 -5.192319516924e+00 +1.580776294196e+02 -7.497621178469e+00 -4.863987467652e+01 -7.469687532413e+00 -6.206023879709e+01 -5.739130813945e+00 -7.942355550921e+01 -7.497621178469e+00 -4.863987467652e+01 -5.191043618860e+00 +1.580475419524e+02
 8.16000000e+01 -5.201183435356e+00 +1.571194105748e+02 -7.525721417484e+00 -4.928281904310e+01 -5.700202536407e+00 -8.099164419551e+01 -7.511547465384e+00 -6.324850554461e+01 -7.525721417484e+00 -4.928281904310e+01 -5.202478137019e+00 +1.571476838177e+02 -7.508894036105e+00 -6.323114178829e+01 -5.700220784302e+00 -8.099281910819e+01 -5.700202536407e+00 -8.099164419551e+01 -7.508894036105e+00 -6.323114178829e+01 -5.202458074834e+00 +1.571488749720e+02 -7.525850564415e+00 -4.928267754204e+01 -7.511547465384e+00 -6.324850554461e+01 -5.700220784302e+00 -8.099281910819e+01 -7.525850564415e+00 -4.928267754204e+01 -5.201130921176e+00 +1.571182605292e+02
 8.32000000e+01 -5.214678193727e+00 +1.561695225345e+02 -7.552093367011e+00 -4.990976790033e+01 -5.659534598620e+00 -8.256667029219e+01 -7.553951909200e+00 -6.444076010087e+01 -7.552093367011e+00 -4.990976790033e+01 -5.216026713491e+00 +1.561982751681e+02 -7.551191914469e+00 -6.442338026625e+01 -5.659552674486e+00 -8.256786625497e+01 -5.659534598619e+00 -8.256667029219e+01 -7.551191914469e+00 -6.442338026625e+01 -5.216005449457e+00 +1.561995250257e+02 -7.552224208037e+00 -4.990959017017e+01 -7.553951909200e+00 -6.444076010087e+01 -5.659552674486e+00 -8.256786625497e+01 -7.552224208037e+00 -4.990959017017e+01 -5.214624936230e+00 +1.561683943712e+02
 8.48000000e+01 -5.231722431571e+00 +1.551987567445e+02 -7.576435649528e+00 -5.052095901734e+01 -5.617105299803e+00 -8.414811002583e+01 -7.596967965604e+00 -6.563762159563e+01 -7.576435649528e+00 -5.052095901734e+01 -5.233127134169e+00 +1.552279763480e+02 -7.594098758921e+00 -6.562024864504e+01 -5.617123088930e+00 -8.414932772913e+01 -5.617105299803e+00 -8.414811002583e+01 -7.594098758920e+00 -6.562024864504e+01 -5.233104666907e+00 +1.552292892375e+02 -7.576567948649e+00 -5.052074371554e+01 -7.596967965604e+00 -6.563762159563e+01 -5.617123088930e+00 -8.414932772913e+01 -7.576567948649e+00 -5.052074371554e+01 -5.231668540797e+00 +1.551976539482e+02
 8.64000000e+01 -5.252468124521e+00 +1.542067885428e+02 -7.598565992232e+00 -5.111658623260e+01 -5.572915634831e+00 -8.573661255936e+01 -7.640672940828e+00 -6.683972421265e+01 -7.598565992232e+00 -5.111658623260e+01 -5.253931567523e+00 +1.542364618764e+02 -7.637691808877e+00 -6.682238216833e+01 -5.572933028166e+00 -8.573785270666e+01 -5.572915634831e+00 -8.573661255936e+01 -7.637691808877e+00 -6.682238216833e+01 -5.253907884971e+00 +1.542378423536e+02 -7.598699490206e+00 -5.111633205982e+01 -7.640672940828e+00 -6.683972421265e+01 -5.572933028166e+00 -8.573785270666e+01 -7.598699490206e+00 -5.111633205982e+01 -5.252413731874e+00 +1.542057148436e+02
 8.80000000e+01 -5.277077393594e+00 +1.531932583186e+02 -7.618293973954e+00 -5.169691505287e+01 -5.526971290993e+00 -8.733284489173e+01 -7.685155158444e+00 -6.804771535406e+01 -7.618293973954e+00 -5.169691505287e+01 -5.278602342433e+00 +1.532233712616e+02 -7.682059314396e+00 -6.803042935984e+01 -5.526988184137e+00 -8.733410821257e+01 -5.526971290993e+00 -8.733284489173e+01 -7.682059314396e+00 -6.803042935984e+01 -5.278577421705e+00 +1.532248241439e+02 -7.618428387830e+00 -5.169662077093e+01 -7.685155158444e+00 -6.804771535406e+01 -5.526988184137e+00 -8.733410821257e+01 -7.618428387830e+00 -5.169662077093e+01 -5.277022655222e+00 +1.531922176983e+02
 8.96000000e+01 -5.305723592352e+00 +1.521577715499e+02 -7.635421148832e+00 -5.226229244794e+01 -5.479282961045e+00 -8.893749118630e+01 -7.730514838363e+00 -6.926225342567e+01 -7.635421148832e+00 -5.226229244794e+01 -5.307313037222e+00 +1.521883090334e+02 -7.727301414046e+00 -6.924504981903e+01 -5.479299253901e+00 -8.893877844861e+01 -5.479282961045e+00 -8.893749118630e+01 -7.727301414046e+00 -6.924504981903e+01 -5.307286844226e+00 +1.521898394345e+02 -7.635556171793e+00 -5.226195689970e+01 -7.730514838363e+00 -6.926225342567e+01 -5.479299253901e+00 -8.893877844861e+01 -7.635556171793e+00 -5.226195689970e+01 -5.305668693742e+00 +1.521567682567e+02
 9.12000000e+01 -5.338592461106e+00 +1.510998989433e+02 -7.649741336287e+00 -5.281315745319e+01 -5.429866674957e+00 -9.055125195267e+01 -7.776865046261e+00 -7.048400517758e+01 -7.649741336287e+00 -5.281315745319e+01 -5.340249635877e+00 +1.511308448762e+02 -7.773531083336e+00 -7.046691157536e+01 -5.429882271994e+00 -9.055256397225e+01 -5.429866674957e+00 -9.055125195267e+01 -7.773531083336e+00 -7.046691157536e+01 -5.340222124864e+00 +1.511324582418e+02 -7.649876637928e+00 -5.281277958434e+01 -7.776865046261e+00 -7.048400517758e+01 -5.429882271994e+00 -9.055256397225e+01 -7.649876637928e+00 -5.281277958434e+01 -5.338537622372e+00 +1.510989375197e+02
 9.28000000e+01 -5.375883355938e+00 +1.500191766759e+02 -7.661041108680e+00 -5.335005251993e+01 -5.378744150440e+00 -9.217484305593e+01 -7.824332717667e+00 -7.171364252643e+01 -7.661041108680e+00 -5.335005251993e+01 -5.377611759248e+00 +1.500505138650e+02 -7.820875158172e+00 -7.169668792679e+01 -5.378758961305e+00 -9.217618070121e+01 -5.378744150440e+00 -9.217484305593e+01 -7.820875158172e+00 -7.169668792679e+01 -5.377582872451e+00 +1.500522160099e+02 -7.661176335834e+00 -5.334963140166e+01 -7.824332717667e+00 -7.171364252643e+01 -5.378758961305e+00 -9.217618070121e+01 -7.661176335834e+00 -5.334963140166e+01 -5.375828836863e+00 +1.500182620013e+02
 9.44000000e+01 -5.417810561050e+00 +1.489151067449e+02 -7.669100509941e+00 -5.387363551636e+01 -5.325943161977e+00 -9.380899452497e+01 -7.873059760989e+00 -7.295183877637e+01 -7.669100509941e+00 -5.387363551636e+01 -5.419613979758e+00 +1.489468168065e+02 -7.869475437768e+00 -7.293505367777e+01 -5.325957101987e+00 -9.381035871616e+01 -5.325943161977e+00 -9.380899452497e+01 -7.869475437768e+00 -7.293505367777e+01 -5.419583647217e+00 +1.489486139557e+02 -7.669235288094e+00 -5.387317036794e+01 -7.873059760988e+00 -7.295183877637e+01 -5.325957101987e+00 -9.381035871616e+01 -7.669235288094e+00 -5.387317036794e+01 -5.417756664842e+00 +1.489142440899e+02
 9.60000000e+01 -5.464604693747e+00 +1.477871574258e+02 -7.673694039693e+00 -5.438469223984e+01 -5.271497927584e+00 -9.545444912817e+01 -7.923204243854e+00 -7.419926414382e+01 -7.673694039693e+00 -5.438469223984e+01 -5.466487228994e+00 +1.478192206884e+02 -7.919489871215e+00 -7.418268067941e+01 -5.271510917614e+00 -9.545584083253e+01 -5.271497927584e+00 -9.545444912817e+01 -7.919489871215e+00 -7.418268067941e+01 -5.466455368508e+00 +1.478211195236e+02 -7.673827974940e+00 -5.438418245007e+01 -7.923204243854e+00 -7.419926414382e+01 -5.271510917614e+00 -9.545584083253e+01 -7.673827974940e+00 -5.438418245007e+01 -5.464551768928e+00 +1.477863525112e+02
 9.76000000e+01 -5.516514212186e+00 +1.466347638418e+02 -7.674591937703e+00 -5.488414925237e+01 -5.215449511926e+00 -9.711196068177e+01 -7.974941667052e+00 -7.545658047641e+01 -7.674591937703e+00 -5.488414925237e+01 -5.518480308408e+00 +1.466671592378e+02 -7.971093831599e+00 -7.544023256116e+01 -5.215461477452e+00 -9.711338090841e+01 -5.215449511926e+00 -9.711196068177e+01 -7.971093831599e+00 -7.544023256116e+01 -5.518446825394e+00 +1.466691669517e+02 -7.674724619131e+00 -5.488359439933e+01 -7.974941667052e+00 -7.545658047641e+01 -5.215461477452e+00 -9.711338090841e+01 -7.674724619131e+00 -5.488359439933e+01 -5.516462652949e+00 +1.466340228937e+02
 9.92000000e+01 -5.573807036938e+00 +1.454573286445e+02 -7.671561802669e+00 -5.537308679638e+01 -5.157846243585e+00 -9.878229205374e+01 -8.028466329795e+00 -7.672443503855e+01 -7.671561802669e+00 -5.537308679638e+01 -5.575861514291e+00 +1.454900335882e+02 -8.024481480927e+00 -7.670835852793e+01 -5.157857113040e+00 -9.878374185155e+01 -5.157846243584e+00 -9.878229205374e+01 -8.024481480927e+00 -7.670835852793e+01 -5.575826301261e+00 +1.454921579466e+02 -7.671692805064e+00 -5.537248666549e+01 -8.028466329795e+00 -7.672443503855e+01 -5.157857113039e+00 -9.878374185155e+01 -7.671692805064e+00 -5.537248666549e+01 -5.573757283138e+00 +1.454566584392e+02
 1.00800000e+02 -5.636772298558e+00 +1.442542227979e+02 -7.664370576831e+00 -5.585275148683e+01 -5.098744143376e+00 -1.004662128234e+02 -8.083992789049e+00 -7.800345321843e+01 -7.664370576831e+00 -5.585275148683e+01 -5.638920389302e+00 +1.442872130497e+02 -8.079867228413e+00 -7.798768608037e+01 -5.098753846236e+00 -1.004676932842e+02 -5.098744143376e+00 -1.004662128234e+02 -8.079867228413e+00 -7.798768608037e+01 -5.638883324752e+00 +1.442894624617e+02 -7.664499463683e+00 -5.585210608771e+01 -8.083992789049e+00 -7.800345321844e+01 -5.098753846236e+00 -1.004676932842e+02 -7.664499463683e+00 -5.585210608771e+01 -5.636724836743e+00 +1.442536306994e+02
 1.02400000e+02 -5.705722224888e+00 +1.430247864555e+02 -7.652786923269e+00 -5.632456841119e+01 -5.038207359525e+00 -1.021644965559e+02 -8.141757414444e+00 -7.929422999316e+01 -7.652786923269e+00 -5.632456841119e+01 -5.707969614312e+00 +1.430580359687e+02 -8.137487283739e+00 -7.927881249820e+01 -5.038215824627e+00 -1.021660088229e+02 -5.038207359525e+00 -1.021644965559e+02 -8.137487283739e+00 -7.927881249820e+01 -5.707930560952e+00 +1.430604195642e+02 -7.652913250135e+00 -5.632387799348e+01 -8.141757414444e+00 -7.929422999316e+01 -5.038215824627e+00 -1.021660088229e+02 -7.652913250134e+00 -5.632387799348e+01 -5.705677591372e+00 +1.430242804490e+02
 1.04000000e+02 -5.780994183736e+00 +1.417683299049e+02 -7.636584015640e+00 -5.679015220355e+01 -4.976308604385e+00 -1.038779176505e+02 -8.202020039032e+00 -8.059731996967e+01 -7.636584015640e+00 -5.679015220355e+01 -5.783347056274e+00 +1.418018106550e+02 -8.197601305886e+00 -8.058229490595e+01 -4.976315758774e+00 -1.038794629301e+02 -4.976308604385e+00 -1.038779176505e+02 -8.197601305886e+00 -8.058229490595e+01 -5.783305858654e+00 +1.418043383693e+02 -7.636707333959e+00 -5.678941727152e+01 -8.202020039032e+00 -8.059731996967e+01 -4.976315758774e+00 -1.038794629301e+02 -7.636707333959e+00 -5.678941727152e+01 -5.780952970078e+00 +1.417679186345e+02
 1.05600000e+02 -5.862952898963e+00 +1.404841345464e+02 -7.615542750283e+00 -5.725131659801e+01 -4.913129586048e+00 -1.056072477197e+02 -8.265065704849e+00 -8.191322579746e+01 -7.615542750283e+00 -5.725131659801e+01 -5.865417990212e+00 +1.405178163380e+02 -8.260494146756e+00 -8.189863871740e+01 -4.913135354458e+00 -1.056088272949e+02 -4.913129586048e+00 -1.056072477197e+02 -8.260494146756e+00 -8.189863871740e+01 -5.865374471828e+00 +1.405204990053e+02 -7.615662611716e+00 -5.725053792317e+01 -8.265065704848e+00 -8.191322579746e+01 -4.913135354458e+00 -1.056088272949e+02 -7.615662611716e+00 -5.725053792317e+01 -5.862915759736e+00 +1.404838273632e+02
 1.07200000e+02 -5.951992860975e+00 +1.391714538516e+02 -7.589455378032e+00 -5.771008191240e+01 -4.848761426724e+00 -1.073532514593e+02 -8.331206500697e+00 -8.324238472307e+01 -7.589455378032e+00 -5.771008191240e+01 -5.954577516422e+00 +1.392053041016e+02 -8.326477687162e+00 -8.322828422871e+01 -4.848765731641e+00 -1.073548667033e+02 -4.848761426724e+00 -1.073532514593e+02 -8.326477687163e+00 -8.322828422871e+01 -5.954531476383e+00 +1.392081535575e+02 -7.589571339354e+00 -5.770926054315e+01 -8.331206500697e+00 -8.324238472307e+01 -4.848765731641e+00 -1.073548667033e+02 -7.589571339354e+00 -5.770926054315e+01 -5.951960523518e+00 +1.391712608751e+02
 1.08800000e+02 -6.048540956306e+00 +1.378295142271e+02 -7.558129537754e+00 -5.816867987265e+01 -4.783305058073e+00 -1.091166819711e+02 -8.400783487570e+00 -8.458515302658e+01 -7.558129537754e+00 -5.816867987265e+01 -6.051253197748e+00 +1.378634977194e+02 -8.395892760664e+00 -8.457159110018e+01 -4.783307820261e+00 -1.091183343598e+02 -4.783305058073e+00 -1.091166819711e+02 -8.395892760664e+00 -8.457159110018e+01 -6.051204407018e+00 +1.378665269154e+02 -7.558241166266e+00 -5.816781713989e+01 -8.400783487570e+00 -8.458515302658e+01 -4.783307820261e+00 -1.091183343598e+02 -7.558241166266e+00 -5.816781713989e+01 -6.048514232232e+00 +1.378294464223e+02
 1.10400000e+02 -6.153059345759e+00 +1.364575156786e+02 -7.521392655729e+00 -5.862955516439e+01 -4.716871581842e+00 -1.108982755032e+02 -8.474168704645e+00 -8.594178804586e+01 -7.521392655729e+00 -5.862955516439e+01 -6.155907946544e+00 +1.364915942842e+02 -8.469111158154e+00 -8.592882043315e+01 -4.716872721217e+00 -1.108999666268e+02 -4.716871581842e+00 -1.108982755032e+02 -8.469111158154e+00 -8.592882043315e+01 -6.155856143750e+00 +1.364948174169e+02 -7.521499535098e+00 -5.862865268204e+01 -8.474168704645e+00 -8.594178804586e+01 -4.716872721217e+00 -1.108999666268e+02 -7.521499535098e+00 -5.862865268204e+01 -6.153039144140e+00 +1.364575849505e+02
 1.12000000e+02 -6.266048626652e+00 +1.350546321305e+02 -7.479096654883e+00 -5.909536309826e+01 -4.649582582184e+00 -1.126987455821e+02 -8.551767245673e+00 -8.731242745542e+01 -7.479096654883e+00 -5.909536309827e+01 -6.269043197135e+00 +1.350887644877e+02 -8.546537703059e+00 -8.730011410994e+01 -4.649582018972e+00 -1.127004771555e+02 -4.649582582184e+00 -1.126987455821e+02 -8.546537703059e+00 -8.730011410994e+01 -6.268988083887e+00 +1.350921971443e+02 -7.479198391294e+00 -5.909442275787e+01 -8.551767245673e+00 -8.731242745542e+01 -4.649582018972e+00 -1.127004771555e+02 -7.479198391294e+00 -5.909442275787e+01 -6.266035969023e+00 +1.350548514357e+02
 1.13600000e+02 -6.388051322727e+00 +1.336200112057e+02 -7.431122896357e+00 -5.956896280436e+01 -4.581570374031e+00 -1.145187765188e+02 -8.634019391879e+00 -8.869706542198e+01 -7.431122896357e+00 -5.956896280436e+01 -6.391202407559e+00 +1.336541523524e+02 -8.628612383260e+00 -8.868547102045e+01 -4.581568030148e+00 -1.145205503910e+02 -4.581570374031e+00 -1.145187765188e+02 -8.628612383260e+00 -8.868547102045e+01 -6.391143643215e+00 +1.336578116771e+02 -7.431219124813e+00 -5.956798676303e+01 -8.634019391879e+00 -8.869706542198e+01 -4.581568030148e+00 -1.145205503910e+02 -7.431219124813e+00 -5.956798676303e+01 -6.388047360169e+00 +1.336203946850e+02
 1.15200000e+02 -6.519655755572e+00 +1.321527732073e+02 -7.377387253797e+00 -6.005340543260e+01 -4.512978169823e+00 -1.163590162854e+02 -8.721402782960e+00 -9.009552520664e+01 -7.377387253797e+00 -6.005340543260e+01 -6.522974944799e+00 +1.321868741551e+02 -8.715812521453e+00 -9.008471974759e+01 -4.512973970465e+00 -1.163608344481e+02 -4.512978169823e+00 -1.163590162854e+02 -8.715812521453e+00 -9.008471974759e+01 -6.522912140606e+00 +1.321907790392e+02 -7.377477644391e+00 -6.005239609384e+01 -8.721402782959e+00 -9.009552520664e+01 -4.512973970465e+00 -1.163608344481e+02 -7.377477644392e+00 -6.005239609384e+01 -6.519661788297e+00 +1.321533363399e+02
 1.16800000e+02 -6.661500364907e+00 +1.306520089583e+02 -7.317845199466e+00 -6.055191693473e+01 -4.443960144983e+00 -1.182200687747e+02 -8.814434602369e+00 -9.150742772258e+01 -7.317845199466e+00 -6.055191693473e+01 -6.665000421230e+00 +1.306860161965e+02 -8.808654960257e+00 -9.149748722269e+01 -4.443954020435e+00 -1.182219333701e+02 -4.443960144983e+00 -1.182200687747e+02 -8.808654960257e+00 -9.149748722269e+01 -6.664933133758e+00 +1.306901874973e+02 -7.317929463420e+00 -6.055087692191e+01 -8.814434602369e+00 -9.150742772258e+01 -4.443954020434e+00 -1.182219333701e+02 -7.317929463420e+00 -6.055087692191e+01 -6.661517864879e+00 +1.306527687417e+02
 1.18400000e+02 -6.814278562619e+00 +1.291167760517e+02 -7.252496762081e+00 -6.106787513859e+01 -4.374681380821e+00 -1.201024854788e+02 -8.913673746462e+00 -9.293215548368e+01 -7.252496762081e+00 -6.106787513859e+01 -6.817973567659e+00 +1.291506309661e+02 -8.907698231874e+00 -9.292316278953e+01 -4.374673268467e+00 -1.201043988066e+02 -4.374681380821e+00 -1.201024854788e+02 -8.907698231874e+00 -9.292316278953e+01 -6.817901291471e+00 +1.291550917597e+02 -7.252574657338e+00 -6.106680726112e+01 -8.913673746462e+00 -9.293215548368e+01 -4.374673268467e+00 -1.201043988066e+02 -7.252574657338e+00 -6.106680726112e+01 -6.814309199876e+00 +1.291177512122e+02
 1.20000000e+02 -6.978744228323e+00 +1.275460929268e+02 -7.181391200937e+00 -6.160478099636e+01 -4.305317662165e+00 -1.220067566457e+02 -9.019722938901e+00 -9.436881129097e+01 -7.181391200937e+00 -6.160478099636e+01 -6.982649751351e+00 +1.275797311135e+02 -9.013544674009e+00 -9.436085702741e+01 -4.305307508741e+00 -1.220087211694e+02 -4.305317662165e+00 -1.220067566457e+02 -9.013544674009e+00 -9.436085702741e+01 -6.982571910840e+00 +1.275845069886e+02 -7.181462537097e+00 -6.160368820877e+01 -9.019722938901e+00 -9.436881129097e+01 -4.305307508741e+00 -1.220087211694e+02 -7.181462537097e+00 -6.160368820877e+01 -6.978789901844e+00 +1.275473041648e+02
 1.21600000e+02 -7.155717984068e+00 +1.259389300158e+02 -7.104631230701e+00 -6.216622408951e+01 -4.236055106300e+00 -1.239333020059e+02 -9.133230741509e+00 -9.581617089531e+01 -7.104631230701e+00 -6.216622408951e+01 -7.159851277394e+00 +1.259722804651e+02 -9.126842443659e+00 -9.580935457580e+01 -4.236042870373e+00 -1.239353203579e+02 -4.236055106300e+00 -1.239333020059e+02 -9.126842443659e+00 -9.580935457580e+01 -7.159767217757e+00 +1.259773998660e+02 -7.104695873071e+00 -6.216510944418e+01 -9.133230741509e+00 -9.581617089531e+01 -4.236042870373e+00 -1.239353203579e+02 -7.104695873071e+00 -6.216510944418e+01 -7.155780858190e+00 +1.259404002939e+02
 1.23200000e+02 -7.346094424707e+00 +1.242941969808e+02 -7.022376627793e+00 -6.275584269686e+01 -4.167089599737e+00 -1.258824611946e+02 -9.254893399554e+00 -9.727262873967e+01 -7.022376627793e+00 -6.275584269686e+01 -7.350474650932e+00 +1.243271811000e+02 -9.248287367360e+00 -9.726706006941e+01 -4.167075254436e+00 -1.258845361804e+02 -4.167089599737e+00 -1.258824611946e+02 -9.248287367360e+00 -9.726706006941e+01 -7.350383628260e+00 +1.243326757296e+02 -7.022434500376e+00 -6.275470929127e+01 -9.254893399554e+00 -9.727262873967e+01 -4.167075254435e+00 -1.258845361804e+02 -7.022434500376e+00 -6.275470929127e+01 -7.346176972426e+00 +1.242959518630e+02
 1.24800000e+02 -7.550850531294e+00 +1.226107247775e+02 -6.934847053506e+00 -6.337727896788e+01 -4.098626020419e+00 -1.278544840342e+02 -9.385456442267e+00 -9.873613571652e+01 -6.934847053505e+00 -6.337727896788e+01 -7.555499028801e+00 +1.226432552100e+02 -9.378624549464e+00 -9.873193612509e+01 -4.098609556406e+00 -1.278566186351e+02 -4.098626020419e+00 -1.278544840342e+02 -9.378624549463e+00 -9.873193612509e+01 -7.555400199335e+00 +1.226491605053e+02 -6.934898140738e+00 -6.337612988760e+01 -9.385456442267e+00 -9.873613571652e+01 -4.098609556406e+00 -1.278566186351e+02 -6.934898140738e+00 -6.337612988759e+01 -7.550955586080e+00 +1.226127928292e+02
 1.26400000e+02 -7.771055561173e+00 +1.208872409031e+02 -6.842323941513e+00 -6.403412997713e+01 -4.030877225250e+00 -1.298495208842e+02 -9.525715936202e+00 -1.002041276637e+02 -6.842323941513e+00 -6.403412997713e+01 -7.775996155831e+00 +1.209192200905e+02 -9.518649637200e+00 -1.002014321118e+02 -4.030858653946e+00 -1.298517182581e+02 -4.030877225250e+00 -1.298495208842e+02 -9.518649637199e+00 -1.002014321118e+02 -7.775888564499e+00 +1.209255757889e+02 -6.842368288635e+00 -6.403296823592e+01 -9.525715936201e+00 -1.002041276637e+02 -4.030858653946e+00 -1.298517182581e+02 -6.842368288635e+00 -6.403296823592e+01 -7.771186379458e+00 +1.208896541660e+02
 1.28000000e+02 -8.007882795265e+00 +1.191223356982e+02 -6.745151318314e+00 -6.472989565515e+01 -3.964062786707e+00 -1.318676133074e+02 -9.676519257435e+00 -1.016734430554e+02 -6.745151318314e+00 -6.472989565515e+01 -8.013142168336e+00 +1.191536541134e+02 -9.669209610014e+00 -1.016724021688e+02 -3.964042143745e+00 -1.318698767884e+02 -3.964062786707e+00 -1.318676133074e+02 -9.669209610013e+00 -1.016724021688e+02 -8.013024736812e+00 +1.191605049301e+02 -6.745189030272e+00 -6.472872413398e+01 -9.676519257435e+00 -1.016734430554e+02 -3.964042143745e+00 -1.318698767884e+02 -6.745189030272e+00 -6.472872413398e+01 -8.008043132382e+00 +1.191251302555e+02
 1.29600000e+02 -8.262623636865e+00 +1.173144169100e+02 -6.643735453796e+00 -6.546792478053e+01 -3.898407467907e+00 -1.339086853448e+02 -9.838765204459e+00 -1.031402280091e+02 -6.643735453796e+00 -6.546792478053e+01 -8.268231761698e+00 +1.173449508659e+02 -9.831202917149e+00 -1.031410106037e+02 -3.898384816811e+00 -1.339110184399e+02 -3.898407467907e+00 -1.339086853448e+02 -9.831202917148e+00 -1.031410106037e+02 -8.268103276412e+00 +1.173523473120e+02 -6.643766692654e+00 -6.546674616705e+01 -9.838765204459e+00 -1.031402280091e+02 -3.898384816811e+00 -1.339110184399e+02 -6.643766692654e+00 -6.546674616705e+01 -8.262817840131e+00 +1.173176335629e+02
 1.31200000e+02 -8.536704705967e+00 +1.154616488377e+02 -6.538543274387e+00 -6.625136036532e+01 -3.834139433067e+00 -1.359725357302e+02 -1.001340321127e+01 -1.045998263052e+02 -6.538543274387e+00 -6.625136036532e+01 -8.542695369511e+00 +1.154912577425e+02 -1.000557872587e+01 -1.046026223795e+02 -3.834114869116e+00 -1.359749421135e+02 -3.834139433067e+00 -1.359725357302e+02 -1.000557872587e+01 -1.046026223795e+02 -8.542554470352e+00 +1.154992571194e+02 -6.538568255260e+00 -6.625017709571e+01 -1.001340321127e+01 -1.045998263052e+02 -3.834114869116e+00 -1.359749421135e+02 -6.538568255260e+00 -6.625017709571e+01 -8.536937829832e+00 +1.154653339184e+02
 1.32800000e+02 -8.831708770991e+00 +1.135618711468e+02 -6.430099511513e+00 -6.708308586068e+01 -3.771488199857e+00 -1.380588314045e+02 -1.020143133109e+01 -1.060466515967e+02 -6.430099511513e+00 -6.708308586068e+01 -8.838120200625e+00 +1.135903940327e+02 -1.019333495486e+01 -1.060516758819e+02 -3.771461854113e+00 -1.380613149086e+02 -3.771488199857e+00 -1.380588314045e+02 -1.019333495486e+01 -1.060516758819e+02 -8.837965371524e+00 +1.135990616529e+02 -6.430118497102e+00 -6.708190006548e+01 -1.020143133109e+01 -1.060466515967e+02 -3.771461854113e+00 -1.380613149086e+02 -6.430118497102e+00 -6.708190006548e+01 -8.831986720921e+00 +1.135660775011e+02
 1.34400000e+02 -9.149400622530e+00 +1.116124907235e+02 -6.318982601186e+00 -6.796567364431e+01 -3.710682351672e+00 -1.401671027132e+02 -1.040389253311e+01 -1.074740383419e+02 -6.318982601186e+00 -6.796567364431e+01 -9.156276244637e+00 +1.116397418067e+02 -1.039551464062e+01 -1.074815345148e+02 -3.710654395107e+00 -1.401696673174e+02 -3.710682351672e+00 -1.401671027132e+02 -1.039551464062e+01 -1.074815345148e+02 -9.156105807974e+00 +1.116491525056e+02 -6.318995895040e+00 -6.796448709986e+01 -1.040389253311e+01 -1.074740383419e+02 -3.710654395107e+00 -1.401696673174e+02 -6.318995895040e+00 -6.796448709986e+01 -9.149730336750e+00 +1.116172789048e+02
 1.36000000e+02 -9.491759345143e+00 +1.096103374713e+02 -6.205819394359e+00 -6.890133722332e+01 -3.651947041082e+00 -1.422967406725e+02 -1.062186866952e+01 -1.088740672374e+02 -6.205819394359e+00 -6.890133722332e+01 -9.499148709709e+00 +1.096361004099e+02 -1.061320000217e+01 -1.088843129167e+02 -3.651917688759e+00 -1.422993904870e+02 -3.651947041082e+00 -1.422967406725e+02 -1.061320000217e+01 -1.088843129167e+02 -9.498960827620e+00 +1.096463404367e+02 -6.205827333029e+00 -6.890015131004e+01 -1.062186866952e+01 -1.088740672374e+02 -3.651917688759e+00 -1.422993904870e+02 -6.205827333029e+00 -6.890015131004e+01 -9.492149026914e+00 +1.096157771997e+02
 1.37600000e+02 -9.861018916348e+00 +1.075514713655e+02 -6.091278779783e+00 -6.989188849491e+01 -3.595501330211e+00 -1.444469966734e+02 -1.085647120222e+01 -1.102373600573e+02 -6.091278779783e+00 -6.989188849491e+01 -9.868978832327e+00 +1.075754917406e+02 -1.084750330419e+01 -1.102506727191e+02 -3.595470845430e+00 -1.444497359201e+02 -3.595501330211e+00 -1.444469966734e+02 -1.084750330419e+01 -1.102506727191e+02 -9.868771519858e+00 +1.075866611497e+02 -6.091281724080e+00 -6.989070416364e+01 -1.085647120222e+01 -1.102373600573e+02 -3.595470845430e+00 -1.444497359201e+02 -6.091281724080e+00 -6.989070416364e+01 -9.861478334660e+00 +1.075576433214e+02
 1.39200000e+02 -1.025971970430e+01 +1.054309227390e+02 -5.976064359486e+00 -7.093870125915e+01 -3.541555428883e+00 -1.466169849563e+02 -1.110882739156e+01 -1.115528378914e+02 -5.976064359486e+00 -7.093870125915e+01 -1.026831564435e+01 +1.054528980832e+02 -1.109955323599e+01 -1.115695818425e+02 -3.541524127214e+00 -1.466198179451e+02 -3.541555428882e+00 -1.466169849563e+02 -1.109955323599e+01 -1.115695818425e+02 -1.026808680239e+01 +1.054651137922e+02 -5.976062685054e+00 -7.093751900611e+01 -1.110882739156e+01 -1.115528378914e+02 -3.541524127214e+00 -1.466198179451e+02 -5.976062685054e+00 -7.093751900611e+01 -1.026026058852e+01 +1.054379207821e+02
 1.40800000e+02 -1.069077431366e+01 +1.032423396728e+02 -5.860906349630e+00 -7.204268197860e+01 -3.490307906061e+00 -1.488056881176e+02 -1.138006009009e+01 -1.128074359366e+02 -5.860906349630e+00 -7.204268197860e+01 -1.070008216526e+01 +1.032619060549e+02 -1.137047497060e+01 -1.128280304797e+02 -3.490276159168e+00 -1.488086192182e+02 -3.490307906061e+00 -1.488056881176e+02 -1.137047497060e+01 -1.128280304797e+02 -1.069982964618e+01 +1.032753058045e+02 -5.860900437078e+00 -7.204150182957e+01 -1.138006009009e+01 -1.128074359366e+02 -3.490276159168e+00 -1.488086192182e+02 -5.860900437078e+00 -7.204150182957e+01 -1.069141087939e+01 +1.032502736037e+02
 1.42400000e+02 -1.115755243732e+01 +1.009775038026e+02 -5.746552905053e+00 -7.320424854045e+01 -3.441942963385e+00 -1.510119658178e+02 -1.167125848233e+01 -1.139857675262e+02 -5.746552905053e+00 -7.320424854045e+01 -1.116766070133e+01 +1.009942175038e+02 -1.166136127357e+01 -1.140106964115e+02 -3.441911202512e+00 -1.510149994277e+02 -3.441942963385e+00 -1.510119658178e+02 -1.166136127357e+01 -1.140106964115e+02 -1.116738242834e+01 +1.010089650527e+02 -5.746543129872e+00 -7.320307004415e+01 -1.167125848233e+01 -1.139857675262e+02 -3.441911202512e+00 -1.510149994277e+02 -5.746543129872e+00 -7.320307004415e+01 -1.115830209848e+01 +1.009865028189e+02
 1.44000000e+02 -1.166399103813e+01 +9.862565596635e+01 -5.633761083027e+00 -7.442331750842e+01 -3.396627869978e+00 -1.532345667358e+02 -1.198343596914e+01 -1.150697305172e+02 -5.633761083027e+00 -7.442331750842e+01 -1.167500360609e+01 +9.863896802843e+01 -1.197323089983e+01 -1.150995526794e+02 -3.396596588992e+00 -1.532377072432e+02 -3.396627869978e+00 -1.532345667358e+02 -1.197323089983e+01 -1.150995526794e+02 -1.167469778186e+01 +9.865526006453e+01 -5.633747805519e+00 -7.442213973902e+01 -1.198343596914e+01 -1.150697305172e+02 -3.396596588992e+00 -1.532377072432e+02 -5.633747805519e+00 -7.442213973902e+01 -1.166487538858e+01 +9.863587300919e+01
 1.45600000e+02 -1.221473847609e+01 +9.617254087899e+01 -5.523287670148e+00 -7.569930006811e+01 -3.354510664003e+00 -1.554721436648e+02 -1.231746979025e+01 -1.160380514911e+02 -5.523287670148e+00 -7.569930006811e+01 -1.222677815400e+01 +9.618176109380e+01 -1.230696892466e+01 -1.160734128780e+02 -3.354480421863e+00 -1.554753954084e+02 -3.354510664003e+00 -1.554721436648e+02 -1.230696892466e+01 -1.160734128779e+02 -1.222644361837e+01 +9.619983656828e+01 -5.523271225544e+00 -7.569812163638e+01 -1.231746979025e+01 -1.160380514911e+02 -3.354480421863e+00 -1.554753954084e+02 -5.523271225544e+00 -7.569812163638e+01 -1.221578466927e+01 +9.618415811233e+01
 1.47200000e+02 -1.281534429619e+01 +9.359902647057e+01 -5.415880095394e+00 -7.703110658194e+01 -3.315718227256e+00 -1.577232714830e+02 -1.267401477130e+01 -1.168657692623e+02 -5.415880095394e+00 -7.703110658194e+01 -1.282855727818e+01 +9.360327138156e+01 -1.266324146290e+01 -1.169074151866e+02 -3.315689649768e+00 -1.577266387069e+02 -3.315718227256e+00 -1.577232714830e+02 -1.266324146290e+01 -1.169074151866e+02 -1.282819411968e+01 +9.362342431679e+01 -5.415860784364e+00 -7.702992565448e+01 -1.267401477130e+01 -1.168657692623e+02 -3.315689649768e+00 -1.577266387069e+02 -5.415860784364e+00 -7.702992565448e+01 -1.281658702561e+01 +9.361226217949e+01
 1.48800000e+02 -1.347251040519e+01 +9.087906217554e+01 -5.312267642660e+00 -7.841715939306e+01 -3.280354833335e+00 -1.599864675520e+02 -1.305338064898e+01 -1.175236720169e+02 -5.312267642660e+00 -7.841715939306e+01 -1.348707191709e+01 +9.087717827686e+01 -1.304237431177e+01 -1.175724587953e+02 -3.280328614084e+00 -1.599899543581e+02 -3.280354833334e+00 -1.599864675520e+02 -1.304237431177e+01 -1.175724587953e+02 -1.348668252499e+01 +9.089977563466e+01 -5.312245722329e+00 -7.841597371886e+01 -1.305338064898e+01 -1.175236720169e+02 -3.280328614084e+00 -1.599899543581e+02 -5.312245722329e+00 -7.841597371886e+01 -1.347399481438e+01 +9.089417936726e+01
 1.50400000e+02 -1.419442399273e+01 +8.797658011161e+01 -5.213153157765e+00 -7.985541326292e+01 -3.248501257035e+00 -1.622602139279e+02 -1.345535876381e+01 -1.179777272123e+02 -5.213153157765e+00 -7.985541326292e+01 -1.421054526505e+01 +8.796702753601e+01 -1.344418139296e+01 -1.180346306975e+02 -3.248478157364e+00 -1.622638242259e+02 -3.248501257035e+00 -1.622602139279e+02 -1.344418139296e+01 -1.180346306975e+02 -1.421013616546e+01 +8.799253456907e+01 -5.213128833356e+00 -7.985422020647e+01 -1.345535876381e+01 -1.179777272124e+02 -3.248478157364e+00 -1.622638242259e+02 -5.213128833356e+00 -7.985422020647e+01 -1.419621006132e+01 +8.799389696003e+01
 1.52000000e+02 -1.499119606515e+01 +8.484065290295e+01 -5.119205419236e+00 -8.134338260629e+01 -3.220214512326e+00 -1.645429806128e+02 -1.387897984663e+01 -1.181885884035e+02 -5.119205419236e+00 -8.134338260629e+01 -1.500913249761e+01 +8.482132433310e+01 -1.386772478247e+01 -1.182547050931e+02 -3.220195360268e+00 -1.645467180684e+02 -3.220214512326e+00 -1.645429806128e+02 -1.386772478247e+01 -1.182547050931e+02 -1.500871762735e+01 +8.485034113437e+01 -5.119178836419e+00 -8.134217918632e+01 -1.387897984663e+01 -1.181885884035e+02 -3.220195360268e+00 -1.645467180684e+02 -5.119178836419e+00 -8.134217918632e+01 -1.499336540669e+01 +8.486055461569e+01
 1.53600000e+02 -1.587542557075e+01 +8.139767988775e+01 -5.031052310240e+00 -8.287817451109e+01 -3.195528259158e+00 -1.668332489530e+02 -1.432218131683e+01 -1.181113405081e+02 -5.031052310240e+00 -8.287817451109e+01 -1.589548497387e+01 +8.136561000720e+01 -1.431098471744e+01 -1.181878738928e+02 -3.195513947255e+00 -1.668371169354e+02 -3.195528259158e+00 -1.668332489530e+02 -1.431098471744e+01 -1.181878738928e+02 -1.589509168206e+01 +8.139892487917e+01 -5.031023548236e+00 -8.287695744422e+01 -1.432218131683e+01 -1.181113405081e+02 -3.195513947255e+00 -1.668371169354e+02 -5.031023548236e+00 -8.287695744422e+01 -1.587809229031e+01 +8.142062985370e+01
 1.55200000e+02 -1.686287727625e+01 +7.753832964292e+01 -4.949274892577e+00 -8.445652640578e+01 -3.174453886706e+00 -1.691295342080e+02 -1.478136283700e+01 -1.176957699229e+02 -4.949274892577e+00 -8.445652640578e+01 -1.688542416755e+01 +7.748921397714e+01 -1.477041806529e+01 -1.177839903143e+02 -3.174445368655e+00 -1.691335357392e+02 -3.174453886706e+00 -1.691295342080e+02 -1.477041806529e+01 -1.177839903143e+02 -1.688510459589e+01 +7.752788165253e+01 -4.949243958057e+00 -8.445529215425e+01 -1.478136283700e+01 -1.176957699229e+02 -3.174445368655e+00 -1.691335357392e+02 -4.949243958057e+00 -8.445529215424e+01 -1.686620586437e+01 +7.756487276473e+01
 1.56800000e+02 -1.797313629539e+01 +7.309490769421e+01 -4.874402444666e+00 -8.607484717090e+01 -3.156982244294e+00 -1.714304063007e+02 -1.525081892989e+01 -1.168876308447e+02 -4.874402444666e+00 -8.607484717090e+01 -1.799857974920e+01 +7.302228108249e+01 -1.524039331776e+01 -1.169887912498e+02 -3.156980530431e+00 -1.714345440053e+02 -3.156982244294e+00 -1.714304063007e+02 -1.524039331776e+01 -1.169887912498e+02 -1.799843326497e+01 +7.306773506559e+01 -4.874369266444e+00 -8.607359199372e+01 -1.525081892989e+01 -1.168876308447e+02 -3.156980530431e+00 -1.714345440053e+02 -4.874369266444e+00 -8.607359199372e+01 -1.797737201459e+01 +7.312564466878e+01
 1.58400000e+02 -1.922967212410e+01 +6.780074511613e+01 -4.806908486011e+00 -8.772926048515e+01 -3.143085953819e+00 -1.737345077951e+02 -1.572206838573e+01 -1.156316154914e+02 -4.806908486010e+00 -8.772926048515e+01 -1.925839966687e+01 +6.769454781897e+01 -1.571252022063e+01 -1.157468006624e+02 -3.143092105455e+00 -1.737387838549e+02 -3.143085953819e+00 -1.737345077951e+02 -1.571252022063e+01 -1.157468006624e+02 -1.925861893244e+01 +6.774874745548e+01 -4.806872910534e+00 -8.772798049207e+01 -1.572206838573e+01 -1.156316154914e+02 -3.143092105455e+00 -1.737387838549e+02 -4.806872910534e+00 -8.772798049207e+01 -1.923519369468e+01 +6.783621535400e+01
 1.60000000e+02 -2.065731489065e+01 +6.121566065981e+01 -4.747207773038e+00 -8.941564924925e+01 -3.132722201763e+00 -1.760405682656e+02 -1.618316849609e+01 -1.138769510088e+02 -4.747207773038e+00 -8.941564924925e+01 -2.068945988032e+01 +6.105975686375e+01 -1.617495916326e+01 -1.140068361001e+02 -3.132737324458e+00 -1.760449843781e+02 -3.132722201763e+00 -1.760405682656e+02 -1.617495916326e+01 -1.140068361001e+02 -2.069042876203e+01 +6.112531237583e+01 -4.747169560676e+00 -8.941434045706e+01 -1.618316849609e+01 -1.138769510088e+02 -3.132737324458e+00 -1.760449843781e+02 -4.747169560676e+00 -8.941434045706e+01 -2.066472483763e+01 +6.125594979332e+01
 1.61600000e+02 -2.227044529528e+01 +5.259205398497e+01 -4.695654217633e+00 -9.112970003802e+01 -3.125835877932e+00 -1.783474143929e+02 -1.661822336936e+01 -1.115865299916e+02 -4.695654217633e+00 -9.112970003802e+01 -2.230515346294e+01 +5.236042064838e+01 -1.661191538298e+01 -1.117310387709e+02 -3.125861113803e+00 -1.783519717355e+02 -3.125835877932e+00 -1.783474143929e+02 -1.661191538298e+01 -1.117310387709e+02 -2.230765507998e+01 +5.244037182342e+01 -4.695613039735e+00 -9.112835842869e+01 -1.661822336936e+01 -1.115865299916e+02 -3.125861113803e+00 -1.783519717355e+02 -4.695613039735e+00 -9.112835842869e+01 -2.228070637024e+01 +5.263558638748e+01
 1.63200000e+02 -2.403080867292e+01 +4.067697970393e+01 -4.652539651954e+00 -9.286694668255e+01 -3.122362904571e+00 +1.793460246498e+02 -1.700746098951e+01 -1.087498237977e+02 -4.652539651954e+00 -9.286694668255e+01 -2.406412332105e+01 +4.033123033536e+01 -1.700368865760e+01 -1.089077177084e+02 -3.122399423781e+00 +1.793413254478e+02 -3.122362904571e+00 +1.793460246498e+02 -1.700368865760e+01 -1.089077177084e+02 -2.406972531112e+01 +4.042710047055e+01 -4.652495088676e+00 -9.286556826300e+01 -1.700746098951e+01 -1.087498237977e+02 -3.122399423781e+00 +1.793413254478e+02 -4.652495088676e+00 -9.286556826300e+01 -2.404532318939e+01 +4.071709360518e+01
 1.64800000e+02 -2.572486285258e+01 +2.370541731267e+01 -4.618093342769e+00 -9.462281226960e+01 -3.122233585825e+00 +1.770407166876e+02 -1.732838371729e+01 -1.053980217531e+02 -4.618093342769e+00 -9.462281226960e+01 -2.574519790974e+01 +2.321253907213e+01 -1.732778374642e+01 -1.055665274720e+02 -3.122282577424e+00 +1.770358755665e+02 -3.122233585825e+00 +1.770407166876e+02 -1.732778374642e+01 -1.055665274721e+02 -2.575649173916e+01 +2.331664580791e+01 -4.618044881657e+00 -9.462139313270e+01 -1.732838371729e+01 -1.053980217531e+02 -3.122282577424e+00 +1.770358755665e+02 -4.618044881657e+00 -9.462139313270e+01 -2.574479178746e+01 +2.372314372807e+01
 1.66400000e+02 -2.677421694045e+01 +8.762203648284e-01 -4.592482146490e+00 -9.639264904801e+01 -3.125375805062e+00 +1.747375307974e+02 -1.755840191099e+01 -1.016168488297e+02 -4.592482146490e+00 -9.639264904801e+01 -2.676215401833e+01 +2.913110785294e-01 -1.756150293204e+01 -1.017915179593e+02 -3.125438467361e+00 +1.747325482792e+02 -3.125375805062e+00 +1.747375307974e+02 -1.756150293204e+01 -1.017915179593e+02 -2.678068467027e+01 +3.740257480404e-01 -4.592429181806e+00 -9.639118543467e+01 -1.755840191099e+01 -1.016168488297e+02 -3.125438467361e+00 +1.747325482792e+02 -4.592429181806e+00 -9.639118543467e+01 -2.679739804018e+01 +8.402970918982e-01
 1.68000000e+02 -2.651943038881e+01 -2.403534728170e+01 -4.575811192494e+00 -9.817177593879e+01 -3.131717906837e+00 +1.724372459249e+02 -1.767881863199e+01 -9.754980310992e+01 -4.575811192494e+00 -9.817177593879e+01 -2.647146721169e+01 -2.452920409256e+01 -1.768591374485e+01 -9.772481309926e+01 -3.131795437519e+00 +1.724321231172e+02 -3.131717906837e+00 +1.724372459249e+02 -1.768591374485e+01 -9.772481309926e+01 -2.649315373734e+01 -2.449921736624e+01 -4.575753025299e+00 -9.817026430096e+01 -1.767881863199e+01 -9.754980310992e+01 -3.131795437519e+00 +1.724321231172e+02 -4.575753025299e+00 -9.817026430096e+01 -2.653897372167e+01 -2.412963856045e+01
 1.69600000e+02 -2.515386872368e+01 -4.477418930927e+01 -4.568124986879e+00 -9.995551353941e+01 -3.141191120761e+00 +1.701405632100e+02 -1.767909590948e+01 -9.338534633745e+01 -4.568124986879e+00 -9.995551353941e+01 -2.509153710624e+01 -4.508101737240e+01 -1.769014816881e+01 -9.355430398886e+01 -3.141284706941e+00 +1.701353018007e+02 -3.141191120761e+00 +1.701405632100e+02 -1.769014816881e+01 -9.355430398886e+01 -2.511075326706e+01 -4.509465846932e+01 -4.568060825870e+00 -9.995395060380e+01 -1.767909590948e+01 -9.338534633745e+01 -3.141284706941e+00 +1.701353018007e+02 -4.568060825870e+00 -9.995395060380e+01 -2.516629168581e+01 -4.489092999265e+01
 1.71200000e+02 -2.340710904635e+01 -5.960885829304e+01 -4.569408840408e+00 -1.017392166818e+02 -3.153731414668e+00 +1.678481211569e+02 -1.755962675317e+01 -8.932819518962e+01 -4.569408840408e+00 -1.017392166818e+02 -2.334674797736e+01 -5.977003170252e+01 -1.757425747261e+01 -8.948522086919e+01 -3.153842223110e+00 +1.678427233994e+02 -3.153731414668e+00 +1.678481211569e+02 -1.757425747261e+01 -8.948522086919e+01 -2.336207878842e+01 -5.980339774465e+01 -4.569337803530e+00 -1.017375995142e+02 -1.755962675317e+01 -8.932819518963e+01 -3.153842223110e+00 +1.678427233994e+02 -4.569337803530e+00 -1.017375995142e+02 -2.341409572451e+01 -5.972149706458e+01
 1.72800000e+02 -2.170696807882e+01 -7.006221718187e+01 -4.579590541491e+00 -1.035183047360e+02 -3.169280701794e+00 +1.655605126320e+02 -1.733161076025e+01 -8.556422615657e+01 -4.579590541491e+00 -1.035183047360e+02 -2.165332507558e+01 -7.013570362276e+01 -1.734918197211e+01 -8.570489267440e+01 -3.169409869511e+00 +1.655549813224e+02 -3.169280701794e+00 +1.655605126320e+02 -1.734918197211e+01 -8.570489267441e+01 -2.166549659997e+01 -7.017496844664e+01 -4.579511658356e+00 -1.035166308062e+02 -1.733161076025e+01 -8.556422615657e+01 -3.169409869510e+00 +1.655549813224e+02 -4.579511658356e+00 -1.035166308062e+02 -2.171074751497e+01 -7.016342940973e+01
 1.74400000e+02 -2.017901148064e+01 -7.775446872031e+01 -4.598542215793e+00 -1.052882899413e+02 -3.187787368293e+00 +1.632783026020e+02 -1.701410053467e+01 -8.223279576437e+01 -4.598542215793e+00 -1.052882899413e+02 -2.013215520081e+01 -7.777715704616e+01 -1.703385260285e+01 -8.235457540236e+01 -3.187935993720e+00 +1.632726410470e+02 -3.187787368293e+00 +1.632783026020e+02 -1.703385260285e+01 -8.235457540236e+01 -2.014207076308e+01 -7.781669403763e+01 -4.598454430939e+00 -1.052865571880e+02 -1.701410053467e+01 -8.223279576437e+01 -3.187935993720e+00 +1.632726410470e+02 -4.598454430939e+00 -1.052865571880e+02 -2.018097655896e+01 -7.784445886846e+01
 1.76000000e+02 -1.883293305669e+01 -8.372614419945e+01 -4.626082336302e+00 -1.070448040880e+02 -3.209206129900e+00 +1.610020455167e+02 -1.662969953930e+01 -7.941532121501e+01 -4.626082336302e+00 -1.070448040880e+02 -1.879183992187e+01 -8.371855693895e+01 -1.665088465666e+01 -7.951749004787e+01 -3.209375264864e+00 +1.609962574947e+02 -3.209206129900e+00 +1.610020455167e+02 -1.665088465666e+01 -7.951749004787e+01 -1.880016172466e+01 -8.375637178756e+01 -4.625984513336e+00 -1.070430109836e+02 -1.662969953930e+01 -7.941532121501e+01 -3.209375264864e+00 +1.609962574947e+02 -4.625984513336e+00 -1.070430109836e+02 -1.883384884883e+01 -8.380676607709e+01
 1.77600000e+02 -1.764769210262e+01 -8.858993552038e+01 -4.661977869417e+00 -1.087836238723e+02 -3.233497266724e+00 +1.587323013211e+02 -1.620066153668e+01 -7.713955623770e+01 -4.661977869416e+00 -1.087836238723e+02 -1.761129661469e+01 -8.856348779401e+01 -1.622263299448e+01 -7.722275542900e+01 -3.233687909374e+00 +1.587263910356e+02 -3.233497266724e+00 +1.587323013211e+02 -1.622263299448e+01 -7.722275542900e+01 -1.761846789611e+01 -8.859900186644e+01 -4.661868796110e+00 -1.087817694885e+02 -1.620066153668e+01 -7.713955623771e+01 -3.233687909373e+00 +1.587263910356e+02 -4.661868796110e+00 -1.087817694885e+02 -1.764797983548e+01 -8.866302741091e+01
 1.79200000e+02 -1.659818798050e+01 -9.271018338816e+01 -4.705946562024e+00 -1.105006952039e+02 -3.260625320057e+00 +1.564696492116e+02 -1.574638288174e+01 -7.539282563198e+01 -4.705946562024e+00 -1.105006952039e+02 -1.656560788889e+01 -9.267144536758e+01 -1.576863269015e+01 -7.545853409013e+01 -3.260838408928e+00 +1.564636212399e+02 -3.260625320057e+00 +1.564696492116e+02 -1.576863269015e+01 -7.545853409013e+01 -1.657192441758e+01 -9.270461353497e+01 -4.705824956407e+00 -1.104987792748e+02 -1.574638288174e+01 -7.539282563198e+01 -3.260838408928e+00 +1.564636212399e+02 -4.705824956407e+00 -1.104987792748e+02 -1.659808804372e+01 -9.277723731533e+01
 1.80800000e+02 -1.566221572174e+01 -9.631120869029e+01 -4.757659390035e+00 -1.121921566657e+02 -3.290557362458e+00 +1.542146984436e+02 -1.528235797557e+01 -7.413709653281e+01 -4.757659390035e+00 -1.121921566657e+02 -1.563276103923e+01 -9.626411683369e+01 -1.530451647894e+01 -7.418718292474e+01 -3.290793771783e+00 +1.542085576807e+02 -3.290557362458e+00 +1.542146984436e+02 -1.530451647894e+01 -7.418718292474e+01 -1.563842439171e+01 -9.629508498716e+01 -4.757523907569e+00 -1.121901796512e+02 -1.528235797557e+01 -7.413709653281e+01 -3.290793771783e+00 +1.542085576807e+02 -4.757523907569e+00 -1.121901796512e+02 -1.566187109885e+01 -9.637337641107e+01
 1.82400000e+02 -1.482160489583e+01 -9.953656238601e+01 -4.816743199483e+00 -1.138543622332e+02 -3.323260970589e+00 +1.519680957155e+02 -1.482016647947e+01 -7.332160008175e+01 -4.816743199483e+00 -1.138543622332e+02 -1.479474187408e+01 -9.948356557886e+01 -1.484198219290e+01 -7.335801310674e+01 -3.323521506939e+00 +1.519618473151e+02 -3.323260970589e+00 +1.519680957155e+02 -1.484198219290e+01 -7.335801310674e+01 -1.479989319254e+01 -9.951253658889e+01 -4.816592441360e+00 -1.138523253793e+02 -1.482016647947e+01 -7.332160008175e+01 -3.323521506938e+00 +1.519618473151e+02 -4.816592441360e+00 -1.138523253793e+02 -1.482110396505e+01 -9.959472535322e+01
 1.84000000e+02 -1.406181292249e+01 -1.024814814821e+02 -4.882783576423e+00 -1.154839032398e+02 -3.358702038818e+00 +1.497305288902e+02 -1.436799284879e+01 -7.289164068064e+01 -4.882783576423e+00 -1.154839032398e+02 -1.403712654424e+01 -1.024241540513e+02 -1.438930623964e+01 -7.291622784460e+01 -3.358987439099e+00 +1.497241782050e+02 -3.358702038818e+00 +1.497305288902e+02 -1.438930623964e+01 -7.291622784460e+01 -1.404186735578e+01 -1.024513355826e+02 -4.882616099054e+00 -1.154818086369e+02 -1.436799284880e+01 -7.289164068064e+01 -3.358987439099e+00 +1.497241782050e+02 -4.882616099053e+00 -1.154818086369e+02 -1.406121214912e+01 -1.025363181877e+02
 1.85600000e+02 -1.337122843999e+01 -1.052111886223e+02 -4.955327981512e+00 -1.170776294710e+02 -3.396842570535e+00 +1.475027270474e+02 -1.393131710838e+01 -7.279393111476e+01 -4.955327981512e+00 -1.170776294710e+02 -1.334839240388e+01 -1.051505712787e+02 -1.395203585734e+01 -7.280835117292e+01 -3.397153501334e+00 +1.474962795699e+02 -3.396842570535e+00 +1.475027270474e+02 -1.395203585734e+01 -7.280835117292e+01 -1.335279759106e+01 -1.051761565673e+02 -4.955142307235e+00 -1.170754801073e+02 -1.393131710838e+01 -7.279393111476e+01 -3.397153501334e+00 +1.474962795699e+02 -4.955142307235e+00 -1.170754801073e+02 -1.337056489897e+01 -1.052632270756e+02
 1.87200000e+02 -1.274052836095e+01 -1.077715858189e+02 -5.033889179617e+00 -1.186326691569e+02 -3.437638574474e+00 +1.452854570721e+02 -1.351357931647e+01 -7.297937910249e+01 -5.033889179617e+00 -1.186326691569e+02 -1.271928273871e+01 -1.077083827976e+02 -1.353365802780e+01 -7.298507323321e+01 -3.437975632671e+00 +1.452789183762e+02 -3.437638574474e+00 +1.452854570721e+02 -1.353365802780e+01 -7.298507323321e+01 -1.272340879932e+01 -1.077325448785e+02 -5.033683808652e+00 -1.186304689674e+02 -1.351357931647e+01 -7.297937910249e+01 -3.437975632671e+00 +1.452789183762e+02 -5.033683808652e+00 -1.186304689674e+02 -1.273982692636e+01 -1.078212420919e+02
 1.88800000e+02 -1.216215976617e+01 -1.101957324361e+02 -5.117948984948e+00 -1.201464475505e+02 -3.481038176608e+00 +1.430795171609e+02 -1.311673694312e+01 -7.340423594189e+01 -5.117948984948e+00 -1.201464475505e+02 -1.214229471480e+01 -1.101304296700e+02 -1.313616175400e+01 -7.340243144357e+01 -3.481401891160e+00 +1.430728928482e+02 -3.481038176608e+00 +1.430795171609e+02 -1.313616175400e+01 -7.340243144357e+01 -1.214618515515e+01 -1.101533210181e+02 -5.117722408561e+00 -1.201442014597e+02 -1.311673694312e+01 -7.340423594189e+01 -3.481401891160e+00 +1.430728928482e+02 -5.117722408561e+00 -1.201442014597e+02 -1.216143739352e+01 -1.102433385455e+02
 1.90400000e+02 -1.162994087978e+01 -1.125079048134e+02 -5.206962328963e+00 -1.216167037135e+02 -3.526980036306e+00 +1.408857277695e+02 -1.274169906100e+01 -7.403029575609e+01 -5.206962328963e+00 -1.216167037135e+02 -1.161128478786e+01 -1.124408431082e+02 -1.276047652084e+01 -7.402202533946e+01 -3.527370871060e+00 +1.408790234181e+02 -3.526980036306e+00 +1.408857277695e+02 -1.276047652084e+01 -7.402202533947e+01 -1.161497373294e+01 -1.124625973078e+02 -5.206713043821e+00 -1.216144176695e+02 -1.274169906100e+01 -7.403029575609e+01 -3.527370871060e+00 +1.408790234181e+02 -5.206713043821e+00 -1.216144176696e+02 -1.162920924322e+01 -1.125537289150e+02
 1.92000000e+02 -1.113875819148e+01 -1.147262211809e+02 -5.300361642966e+00 -1.230415050918e+02 -3.575392130569e+00 +1.387049206100e+02 -1.238864997168e+01 -7.482460010257e+01 -5.300361642966e+00 -1.230415050918e+02 -1.112116899717e+01 -1.146576428539e+02 -1.240679926539e+01 -7.481072691303e+01 -3.575810487944e+00 +1.386981417299e+02 -3.575392130569e+00 +1.387049206100e+02 -1.240679926539e+01 -7.481072691303e+01 -1.112468366431e+01 -1.146783768663e+02 -5.300088166576e+00 -1.230391860919e+02 -1.238864997168e+01 -7.482460010257e+01 -3.575810487944e+00 +1.386981417299e+02 -5.300088166576e+00 -1.230391860919e+02 -1.113802535764e+01 -1.147704823174e+02
 1.93600000e+02 -1.068433697173e+01 -1.168643881406e+02 -5.397561531007e+00 -1.244192594577e+02 -3.626190944254e+00 +1.365379263547e+02 -1.205728385409e+01 -7.575892262518e+01 -5.397561531007e+00 -1.244192594577e+02 -1.066769574060e+01 -1.167944675114e+02 -1.207483149381e+01 -7.574016575125e+01 -3.626637169621e+00 +1.365310783473e+02 -3.626190944254e+00 +1.365379263547e+02 -1.207483149380e+01 -7.574016575125e+01 -1.067105817113e+01 -1.168142839518e+02 -5.397262418106e+00 -1.244169155629e+02 -1.205728385409e+01 -7.575892262518e+01 -3.626637169621e+00 +1.365310783473e+02 -5.397262418106e+00 -1.244169155629e+02 -1.068360849125e+01 -1.169072671298e+02
 1.95200000e+02 -1.026306672385e+01 -1.189328933513e+02 -5.497963692628e+00 -1.257487238144e+02 -3.679281079254e+00 +1.343855616992e+02 -1.174697189650e+01 -7.680918779577e+01 -5.497963692628e+00 -1.257487238144e+02 -1.024727284464e+01 -1.188617571261e+02 -1.176394817111e+01 -7.678614577751e+01 -3.679755465844e+00 +1.343786498241e+02 -3.679281079254e+00 +1.343855616992e+02 -1.176394817111e+01 -7.678614577751e+01 -1.025050113994e+01 -1.188807463272e+02 -5.497637552355e+00 -1.257463641517e+02 -1.174697189650e+01 -7.680918779577e+01 -3.679755465844e+00 +1.343786498241e+02 -5.497637552355e+00 -1.257463641517e+02 -1.026234636091e+01 -1.189745409216e+02
 1.96800000e+02 -9.871867584055e+00 -1.209398395061e+02 -5.600962040225e+00 -1.270290099026e+02 -3.734555273024e+00 +1.322486164027e+02 -1.145687993297e+01 -7.795490345210e+01 -5.600962040225e+00 -1.270290099026e+02 -9.856835132731e+00 -1.208675806710e+02 -1.147331658088e+01 -7.792807483502e+01 -3.735058067196e+00 +1.322416457492e+02 -3.734555273024e+00 +1.322486164027e+02 -1.147331658088e+01 -7.792807483502e+01 -9.859944352087e+00 -1.208858224720e+02 -5.600607553846e+00 -1.270266446544e+02 -1.145687993297e+01 -7.795490345210e+01 -3.735058067195e+00 +1.322416457492e+02 -5.600607553846e+00 -1.270266446544e+02 -9.871157814857e+00 -1.209803824472e+02
 1.98400000e+02 -9.508087328433e+00 -1.228915400429e+02 -5.705947943066e+00 -1.282595860189e+02 -3.791894797844e+00 +1.301278408524e+02 -1.118605054685e+01 -7.917864371299e+01 -5.705947943066e+00 -1.282595860189e+02 -9.493742284580e+00 -1.228182274943e+02 -1.120197926641e+01 -7.914844448627e+01 -3.792426204552e+00 +1.301208163176e+02 -3.791894797844e+00 +1.301278408524e+02 -1.120197926641e+01 -7.914844448627e+01 -9.496745107809e+00 -1.228357927565e+02 -5.705563881978e+00 -1.282572263971e+02 -1.118605054685e+01 -7.917864371299e+01 -3.792426204552e+00 +1.301208163176e+02 -5.705563881978e+00 -1.282572263971e+02 -9.507389688639e+00 -1.229310859086e+02
 2.00000000e+02 -9.169421396484e+00 -1.247929528154e+02 -5.812315520025e+00 -1.294402749385e+02 -3.851170197393e+00 +1.280239346134e+02 -1.093345998838e+01 -8.046559516377e+01 -5.812315520025e+00 -1.294402749385e+02 -9.155699488339e+00 -1.247186381296e+02 -1.094891151536e+01 -8.043237329425e+01 -3.851730385736e+00 +1.280168608856e+02 -3.851170197393e+00 +1.280239346134e+02 -1.094891151536e+01 -8.043237329425e+01 -9.158606711836e+00 -1.247355900101e+02 -5.811900763725e+00 -1.294379331445e+02 -1.093345998838e+01 -8.046559516376e+01 -3.851730385736e+00 +1.280168608856e+02 -5.811900763725e+00 -1.294379331445e+02 -9.168736727856e+00 -1.248315935585e+02
 2.01600000e+02 -8.853850351088e+00 -1.266480010905e+02 -5.919466896183e+00 -1.305712478332e+02 -3.912242306917e+00 +1.259375363217e+02 -1.069805737570e+01 -8.180316699478e+01 -5.919466896183e+00 -1.305712478332e+02 -8.840695369224e+00 -1.265727233415e+02 -1.071306094032e+01 -8.176721441483e+01 -3.912831415629e+00 +1.259304178688e+02 -3.912242306917e+00 +1.259375363217e+02 -1.071306094032e+01 -8.176721441483e+01 -8.843516282143e+00 -1.265891183585e+02 -5.919020449874e+00 -1.305689370014e+02 -1.069805737570e+01 -8.180316699478e+01 -3.912831415629e+00 +1.259304178688e+02 -5.919020449874e+00 -1.305689370014e+02 -8.853178979328e+00 -1.266858159001e+02
 2.03200000e+02 -8.559590647835e+00 -1.284598145486e+02 -6.026817334924e+00 -1.316530141786e+02 -3.974963497329e+00 +1.238692151746e+02 -1.047879148569e+01 -8.318066006586e+01 -6.026817334924e+00 -1.316530141786e+02 -8.546953111956e+00 -1.283836037694e+02 -1.049337452119e+01 -8.314222250407e+01 -3.975581640132e+00 +1.238620562376e+02 -3.974963497329e+00 +1.238692151746e+02 -1.049337452119e+01 -8.314222250407e+01 -8.549695784887e+00 -1.283994926939e+02 -6.026338346355e+00 -1.316507483041e+02 -1.047879148569e+01 -8.318066006586e+01 -3.975581640132e+00 +1.238620562376e+02 -6.026338346355e+00 -1.316507483041e+02 -8.558932512656e+00 -1.284968720848e+02
 2.04800000e+02 -8.285055636954e+00 -1.302309123617e+02 -6.133800156863e+00 -1.326864077513e+02 -4.039179081636e+00 +1.218194641715e+02 -1.027462886840e+01 -8.458898768942e+01 -6.133800156862e+00 -1.326864077513e+02 -8.272891731456e+00 -1.301537920513e+02 -1.028881688395e+01 -8.454827271031e+01 -4.039826352379e+00 +1.218122687613e+02 -4.039179081636e+00 +1.218194641715e+02 -1.028881688395e+01 -8.454827271031e+01 -8.275563240377e+00 -1.301692206554e+02 -6.133287932054e+00 -1.326842016027e+02 -1.027462886840e+01 -8.458898768941e+01 -4.039826352379e+00 +1.218122687613e+02 -6.133287932053e+00 -1.326842016027e+02 -8.284410388367e+00 -1.302672725318e+02
 2.06400000e+02 -8.028824483825e+00 -1.319633435693e+02 -6.239871360015e+00 -1.336725689203e+02 -4.104728823587e+00 +1.197886951625e+02 -1.008456589775e+01 -8.602044056549e+01 -6.239871360015e+00 -1.336725689203e+02 -8.017095199927e+00 -1.318853325195e+02 -1.009838245685e+01 -8.597762413989e+01 -4.105405301100e+00 +1.197814670612e+02 -4.104728823587e+00 +1.197886951625e+02 -1.009838245685e+01 -8.597762413989e+01 -8.019701801710e+00 -1.319003422072e+02 -6.239325377464e+00 -1.336704379380e+02 -1.008456589775e+01 -8.602044056549e+01 -4.105405301100e+00 +1.197814670612e+02 -6.239325377465e+00 -1.336704379380e+02 -8.028191554126e+00 -1.319990589497e+02
 2.08000000e+02 -7.789617252475e+00 -1.336587954523e+02 -6.344513861588e+00 -1.346129235356e+02 -4.171448492568e+00 +1.177772356852e+02 -9.907636581191e+00 -8.746848880701e+01 -6.344513861588e+00 -1.346129235356e+02 -7.778287690597e+00 -1.335799090839e+02 -9.921103346108e+00 -8.742372068518e+01 -4.172154245209e+00 +1.177699784496e+02 -4.171448492568e+00 +1.177772356852e+02 -9.921103346108e+00 -8.742372068518e+01 -7.780834961856e+00 -1.335945374250e+02 -6.343933784601e+00 -1.346108837162e+02 -9.907636581191e+00 -8.746848880701e+01 -4.172154245209e+00 +1.177699784496e+02 -6.343933784601e+00 -1.346108837162e+02 -7.788995910486e+00 -1.336939124357e+02
 2.09600000e+02 -7.566274809325e+00 -1.353186775720e+02 -6.447241290470e+00 -1.355091588017e+02 -4.239171414932e+00 +1.157853275005e+02 -9.742917399131e+00 -8.892761484641e+01 -6.447241290470e+00 -1.355091588017e+02 -7.555313606892e+00 -1.352389289150e+02 -9.756054214686e+00 -8.888102295927e+01 -4.239906504802e+00 +1.157780444682e+02 -4.239171414932e+00 +1.157853275005e+02 -9.756054214686e+00 -8.888102295927e+01 -7.557806554847e+00 -1.352532100994e+02 -6.446626977278e+00 -1.355072265719e+02 -9.742917399131e+00 -8.892761484641e+01 -4.239906504802e+00 +1.157780444682e+02 -6.446626977278e+00 -1.355072265719e+02 -7.565664201491e+00 -1.353532372995e+02
 2.11200000e+02 -7.357742512770e+00 -1.369441870760e+02 -6.547601270501e+00 -1.363631966006e+02 -4.307729979329e+00 +1.138131266890e+02 -9.589530060097e+00 -9.039317194832e+01 -6.547601270501e+00 -1.363631966006e+02 -7.347121371043e+00 -1.368635874887e+02 -9.602355059463e+00 -9.034486602041e+01 -4.308494466133e+00 +1.138058209866e+02 -4.307729979329e+00 +1.138131266890e+02 -9.602355059463e+00 -9.034486602041e+01 -7.349564522796e+00 -1.368775527158e+02 -6.546952781891e+00 -1.363613886819e+02 -9.589530060097e+00 -9.039317194832e+01 -4.308494466133e+00 +1.138058209866e+02 -6.546952781891e+00 -1.363613886819e+02 -7.357141694383e+00 -1.369782261994e+02
 2.12800000e+02 -7.163056886885e+00 -1.385363594351e+02 -6.645178147433e+00 -1.371771647879e+02 -4.376957061553e+00 +1.118607051355e+02 -9.446642791229e+00 -9.186126393738e+01 -6.645178147433e+00 -1.371771647879e+02 -7.152750176600e+00 -1.384549191322e+02 -9.459172512084e+00 -9.181133846058e+01 -4.377751006128e+00 +1.118533796883e+02 -4.376957061553e+00 +1.118607051355e+02 -9.459172512084e+00 -9.181133846058e+01 -7.155147651654e+00 -1.384685969449e+02 -6.644495751650e+00 -1.371754980541e+02 -9.446642791229e+00 -9.186126393738e+01 -4.377751006127e+00 +1.118533796883e+02 -6.644495751650e+00 -1.371754980541e+02 -7.162464845799e+00 -1.385699107441e+02
 2.14400000e+02 -6.981334654748e+00 -1.400961077619e+02 -6.739595126661e+00 -1.379533670247e+02 -4.446687342510e+00 +1.099280532049e+02 -9.313470598361e+00 -9.332864253181e+01 -6.739595126661e+00 -1.379533670247e+02 -6.971319085004e+00 -1.400138361993e+02 -9.325720101979e+00 -9.327717921997e+01 -4.447510810012e+00 +1.099207107471e+02 -4.446687342510e+00 +1.099280532049e+02 -9.325720101979e+00 -9.327717921997e+01 -6.973674654666e+00 -1.400272527734e+02 -6.738879301454e+00 -1.379518583563e+02 -9.313470598361e+00 -9.332864253181e+01 -4.447510810011e+00 +1.099207107471e+02 -6.738879301454e+00 -1.379518583563e+02 -6.980750329337e+00 -1.401292007033e+02
 2.16000000e+02 -6.811763643120e+00 -1.416242531288e+02 -6.830515803803e+00 -1.386942517359e+02 -4.516758500543e+00 +1.080150834060e+02 -9.189274801835e+00 -9.479261933694e+01 -6.830515803803e+00 -1.386942517359e+02 -6.802017981392e+00 -1.415411592847e+02 -9.201257790403e+00 -9.473968915795e+01 -4.517611563328e+00 +1.080077264915e+02 -4.516758500543e+00 +1.080150834060e+02 -9.201257790404e+00 -9.473968915795e+01 -6.804335117837e+00 -1.415543386803e+02 -6.829767235528e+00 -1.386929178739e+02 -9.189274801835e+00 -9.479261933694e+01 -4.517611563328e+00 +1.080077264915e+02 -6.829767235528e+00 -1.386929178739e+02 -6.811185935751e+00 -1.416569142388e+02
 2.17600000e+02 -6.653595175595e+00 -1.431215477699e+02 -6.917645085415e+00 -1.394023807857e+02 -4.587012266397e+00 +1.061216348382e+02 -9.073362065145e+00 -9.625099010156e+01 -6.917645085414e+00 -1.394023807857e+02 -6.644100009402e+00 -1.430376403475e+02 -9.085090994440e+00 -9.619665496481e+01 -4.587895006609e+00 +1.061142658523e+02 -4.587012266397e+00 +1.061216348382e+02 -9.085090994440e+00 -9.619665496481e+01 -6.646381926544e+00 -1.430506047281e+02 -6.916864665233e+00 -1.394012381876e+02 -9.073362065145e+00 -9.625099010156e+01 -4.587895006609e+00 +1.061142658523e+02 -6.916864665233e+00 -1.394012381876e+02 -6.653022962602e+00 -1.431538010373e+02
 2.19200000e+02 -6.506137653451e+00 -1.445886926502e+02 -7.000729512048e+00 -1.400803984501e+02 -4.657295335227e+00 +1.042474782287e+02 -8.965083071678e+00 -9.770196928758e+01 -7.000729512048e+00 -1.400803984501e+02 -6.496875186189e+00 -1.445039802225e+02 -8.976569257466e+00 -9.764628344942e+01 -4.658207847123e+00 +1.042400993989e+02 -4.657295335227e+00 +1.042474782287e+02 -8.976569257466e+00 -9.764628344942e+01 -6.499124874013e+00 -1.445167500470e+02 -6.999918329307e+00 -1.400794631513e+02 -8.965083071678e+00 -9.770196928758e+01 -4.658207847122e+00 +1.042400993989e+02 -6.999918329307e+00 -1.400794631513e+02 -6.505569792335e+00 -1.446205598209e+02
 2.20800000e+02 -6.368751087590e+00 -1.460263505770e+02 -7.079557009832e+00 -1.407310012325e+02 -4.727460135225e+00 +1.023923213767e+02 -8.863830961624e+00 -9.914413336386e+01 -7.079557009832e+00 -1.407310012325e+02 -6.359704962603e+00 -1.459408416896e+02 -8.875084678960e+00 -9.908714460157e+01 -4.728402527267e+00 +1.023849347838e+02 -4.727460135225e+00 +1.023923213767e+02 -8.875084678960e+00 -9.908714460157e+01 -6.361925216258e+00 -1.459534358810e+02 -7.078716342829e+00 -1.407302887165e+02 -8.863830961624e+00 -9.914413336385e+01 -4.728402527267e+00 +1.023849347838e+02 -7.078716342829e+00 -1.407302887165e+02 -6.368186422023e+00 -1.460578514134e+02
 2.22400000e+02 -6.240842395358e+00 -1.474351557982e+02 -7.153956109411e+00 -1.413569090223e+02 -4.797365456638e+00 +1.005558148460e+02 -8.769039610865e+00 -1.005763715236e+02 -7.153956109411e+00 -1.413569090223e+02 -6.231997543486e+00 -1.473488590407e+02 -8.780070186010e+00 -1.005181221189e+02 -4.798337853387e+00 +1.005484224342e+02 -4.797365456638e+00 +1.005558148460e+02 -8.780070186010e+00 -1.005181221189e+02 -6.234190988150e+00 -1.473612951350e+02 -7.153087413795e+00 -1.413564341011e+02 -8.769039610864e+00 -1.005763715236e+02 -4.798337853387e+00 +1.005484224342e+02 -7.153087413795e+00 -1.413564341011e+02 -6.240279758425e+00 -1.474663082998e+02
 2.24000000e+02 -6.121861315576e+00 -1.488157208418e+02 -7.223794681835e+00 -1.419608380329e+02 -4.866876948134e+00 +9.873755776271e+01 -8.680181812233e+00 -1.019978427558e+02 -7.223794681835e+00 -1.419608380329e+02 -6.113203822357e+00 -1.487286448964e+02 -8.690997707225e+00 -1.019383703210e+02 -4.867879491970e+00 +9.873016134909e+01 -4.866876948133e+00 +9.873755776271e+01 -8.690997707225e+00 -1.019383703210e+02 -6.115372934685e+00 -1.487409391736e+02 -7.222899576973e+00 -1.419606147403e+02 -8.680181812233e+00 -1.019978427558e+02 -4.867879491970e+00 +9.873016134909e+01 -7.222899576974e+00 -1.419606147403e+02 -6.121299531600e+00 -1.488465414348e+02
 2.25600000e+02 -6.011296826282e+00 -1.501686412057e+02 -7.288978249630e+00 -1.425454758869e+02 -4.935867489831e+00 +9.693710359869e+01 -8.596767404235e+00 -1.034079383838e+02 -7.288978249630e+00 -1.425454758869e+02 -6.002813815709e+00 -1.500807948793e+02 -8.607376294371e+00 -1.033472765573e+02 -4.936900342541e+00 +9.692970488209e+01 -4.935867489831e+00 +9.693710359869e+01 -8.607376294371e+00 -1.033472765573e+02 -6.004960942493e+00 -1.500929624798e+02 -7.288058503302e+00 -1.425455173870e+02 -8.596767404235e+00 -1.034079383838e+02 -4.936900342541e+00 +9.692970488209e+01 -7.288058503301e+00 -1.425455173870e+02 -6.010734711502e+00 -1.501991449065e+02
 2.27200000e+02 -5.908673974139e+00 -1.514944983868e+02 -7.349447937476e+00 -1.431134591343e+02 -5.004217453844e+00 +9.515396584349e+01 -8.518341381233e+00 -1.048062493331e+02 -7.349447937476e+00 -1.431134591343e+02 -5.900353506434e+00 -1.514058906323e+02 -8.528750225850e+00 -1.047444283670e+02 -5.005280798101e+00 +9.514656641195e+01 -5.004217453844e+00 +9.515396584349e+01 -8.528750225850e+00 -1.047444283670e+02 -5.902480881000e+00 -1.514179456596e+02 -7.348505449303e+00 -1.431137776452e+02 -8.518341381233e+00 -1.048062493331e+02 -5.005280798101e+00 +9.514656641195e+01 -7.348505449303e+00 -1.431137776452e+02 -5.908110336458e+00 -1.515246989444e+02
 2.28800000e+02 -5.813551043706e+00 -1.527938616447e+02 -7.405178130670e+00 -1.436673534114e+02 -5.071814864072e+00 +9.338762348475e+01 -8.444482010926e+00 -1.061925375051e+02 -7.405178130670e+00 -1.436673534114e+02 -5.805382025040e+00 -1.527045015738e+02 -8.454697117916e+00 -1.061295847618e+02 -5.072908904844e+00 +9.338022482208e+01 -5.071814864072e+00 +9.338762348475e+01 -8.454697117916e+00 -1.061295847618e+02 -5.807491781786e+00 -1.527164571854e+02 -7.404214914688e+00 -1.436679601454e+02 -8.444482010926e+00 -1.061925375051e+02 -5.072908904843e+00 +9.338022482207e+01 -7.404214914688e+00 -1.436679601454e+02 -5.812984681675e+00 -1.528237716653e+02
 2.30400000e+02 -5.725517009843e+00 -1.540672888139e+02 -7.456173910797e+00 -1.442096363604e+02 -5.138555467306e+00 +9.163752623810e+01 -8.374798978845e+00 -1.075667107319e+02 -7.456173910797e+00 -1.442096363604e+02 -5.717489112292e+00 -1.539771857049e+02 -8.384826063374e+00 -1.075026511054e+02 -5.139680433218e+00 +9.163012972918e+01 -5.138555467306e+00 +9.163752623810e+01 -8.384826063374e+00 -1.075026511054e+02 -5.719583299691e+00 -1.539890541930e+02 -7.455192077594e+00 -1.442105414809e+02 -8.374798978845e+00 -1.075667107319e+02 -5.139680433218e+00 +9.163012972918e+01 -7.455192077594e+00 -1.442105414809e+02 -5.724946711019e+00 -1.540969198705e+02
 2.32000000e+02 -5.644189228344e+00 -1.553153264165e+02 -7.502468337013e+00 -1.447426833576e+02 -5.204342727597e+00 +8.990309948293e+01 -8.308931574864e+00 -1.089288008612e+02 -7.502468337013e+00 -1.447426833576e+02 -5.636292818632e+00 -1.552244897193e+02 -8.318775812767e+00 -1.088636571350e+02 -5.205498872282e+00 +8.989570641779e+01 -5.204342727597e+00 +8.990309948293e+01 -8.318775812767e+00 -1.088636571350e+02 -5.638373410990e+00 -1.552362825817e+02 -7.501470075817e+00 -1.447438959519e+02 -8.308931574864e+00 -1.089288008612e+02 -5.205498872282e+00 +8.989570641779e+01 -7.501470075816e+00 -1.447438959519e+02 -5.643613767131e+00 -1.553446891470e+02
 2.33600000e+02 -5.569211329076e+00 -1.565385092761e+02 -7.544119638241e+00 -1.452687560197e+02 -5.269087755412e+00 +8.818374887505e+01 -8.246546933082e+00 -1.102789445850e+02 -7.544119638241e+00 -1.452687560197e+02 -5.561437404940e+00 -1.564469486153e+02 -8.256213009391e+00 -1.102127377364e+02 -5.270275358877e+00 +8.817636045160e+01 -5.269087755412e+00 +8.818374887505e+01 -8.256213009391e+00 -1.102127377364e+02 -5.563506313119e+00 -1.564586766181e+02 -7.543107199329e+00 -1.452702840880e+02 -8.246546933082e+00 -1.102789445850e+02 -5.270275358877e+00 +8.817636045160e+01 -7.543107199329e+00 -1.452702840880e+02 -5.568629464136e+00 -1.565676134706e+02
 2.35200000e+02 -5.500251283124e+00 -1.577373597884e+02 -7.581208376765e+00 -1.457899933986e+02 -5.332709182420e+00 +8.647886461964e+01 -8.187338333516e+00 -1.116173666785e+02 -7.581208376765e+00 -1.457899933986e+02 -5.492591416278e+00 -1.576450849659e+02 -8.196830486560e+00 -1.115501161381e+02 -5.333928552451e+00 +8.647148194508e+01 -5.332709182420e+00 +8.647886461964e+01 -8.196830486560e+00 -1.115501161381e+02 -5.494650497570e+00 -1.576567581981e+02 -7.580184054526e+00 -1.457918438560e+02 -8.187338333516e+00 -1.116173666785e+02 -5.333928552451e+00 +8.647148194507e+01 -7.580184054525e+00 -1.457918438560e+02 -5.499661754433e+00 -1.577662144685e+02
 2.36800000e+02 -5.436999621002e+00 -1.589123869716e+02 -7.613834637564e+00 -1.463084057160e+02 -5.395132991905e+00 +8.478782539793e+01 -8.131023571687e+00 -1.129443653561e+02 -7.613834637564e+00 -1.463084057160e+02 -5.429445905859e+00 -1.588194079699e+02 -8.140345633164e+00 -1.128760892288e+02 -5.396384465541e+00 +8.478044948877e+01 -5.395132991905e+00 +8.478782539793e+01 -8.140345633164e+00 -1.128760892288e+02 -5.431496973164e+00 -1.588310358912e+02 -7.612800754477e+00 -1.463105844092e+02 -8.131023571687e+00 -1.129443653561e+02 -5.396384465540e+00 +8.478044948877e+01 -7.612800754477e+00 -1.463105844092e+02 -5.436401146590e+00 -1.589410004628e+02
 2.38400000e+02 -5.379167783316e+00 -1.600640853919e+02 -7.642115290623e+00 -1.468258704520e+02 -5.456292313874e+00 +8.311000194962e+01 -8.077343400275e+00 -1.142602994916e+02 -7.642115290623e+00 -1.468258704520e+02 -5.371712790755e+00 -1.599704123781e+02 -8.086498831673e+00 -1.141910147458e+02 -5.457576258974e+00 +8.310263373032e+01 -5.456292313874e+00 +8.311000194962e+01 -8.086498831673e+00 -1.141910147457e+02 -5.373757621191e+00 -1.599820038599e+02 -7.641074182406e+00 -1.468283821857e+02 -8.077343400275e+00 -1.142602994916e+02 -5.457576258974e+00 +8.310263373032e+01 -7.641074182406e+00 -1.468283821857e+02 -5.378559055769e+00 -1.600924653898e+02
 2.40000000e+02 -5.326486588654e+00 -1.611929340344e+02 -7.666181365845e+00 -1.473441305645e+02 -5.516127192956e+00 +8.144476031914e+01 -8.026060045424e+00 -1.155655774783e+02 -7.666181365846e+00 -1.473441305645e+02 -5.319123324203e+00 -1.610985773659e+02 -8.035051971152e+00 -1.154953001067e+02 -5.517444009890e+00 +8.143740061937e+01 -5.516127192956e+00 +8.144476031914e+01 -8.035051971152e+00 -1.154953001067e+02 -5.321163667259e+00 -1.611101407261e+02 -7.665135367922e+00 -1.473469791386e+02 -8.026060045424e+00 -1.155655774783e+02 -5.517444009890e+00 +8.143740061937e+01 -7.665135367921e+00 -1.473469791386e+02 -5.325866271381e+00 -1.612210876675e+02
